*SPEF "ieee 1481-1999"
*DESIGN "ring_osc2x13"
*DATE "23:09:49 Sunday November 30, 2025"
*VENDOR "The OpenROAD Project"
*PROGRAM "OpenROAD"
*VERSION "4534556345c94ba27a6ad69fb05594da80f0728b"
*DESIGN_FLOW "NAME_SCOPE LOCAL" "PIN_CAP NONE"
*DIVIDER /
*DELIMITER :
*BUS_DELIMITER []
*T_UNIT 1 NS
*C_UNIT 1 PF
*R_UNIT 1 OHM
*L_UNIT 1 HENRY

*NAME_MAP
*3 clockp[0]
*4 clockp[1]
*5 reset
*6 trim[0]
*7 trim[10]
*8 trim[11]
*9 trim[12]
*10 trim[13]
*11 trim[14]
*12 trim[15]
*13 trim[16]
*14 trim[17]
*15 trim[18]
*16 trim[19]
*17 trim[1]
*18 trim[20]
*19 trim[21]
*20 trim[22]
*21 trim[23]
*22 trim[24]
*23 trim[25]
*24 trim[2]
*25 trim[3]
*26 trim[4]
*27 trim[5]
*28 trim[6]
*29 trim[7]
*30 trim[8]
*31 trim[9]
*32 c\[0\]
*33 c\[1\]
*34 dstage\[10\]\.id\.d0
*35 dstage\[10\]\.id\.d1
*36 dstage\[10\]\.id\.d2
*37 dstage\[10\]\.id\.in
*38 dstage\[10\]\.id\.lddtrim\[0\]
*39 dstage\[10\]\.id\.lddtrim\[1\]
*40 dstage\[10\]\.id\.ldotrim\[0\]
*41 dstage\[10\]\.id\.ldotrim\[1\]
*42 dstage\[10\]\.id\.ldtrim\[0\]
*43 dstage\[10\]\.id\.ldtrim\[1\]
*44 dstage\[10\]\.id\.ltrim\[0\]
*45 dstage\[10\]\.id\.ltrim\[1\]
*46 dstage\[10\]\.id\.ltrimb\[0\]
*47 dstage\[10\]\.id\.ltrimb\[1\]
*48 dstage\[10\]\.id\.ltrimbd\[0\]
*49 dstage\[10\]\.id\.ltrimbd\[1\]
*50 dstage\[10\]\.id\.ltrimbdd\[0\]
*51 dstage\[10\]\.id\.ltrimbdd\[1\]
*52 dstage\[10\]\.id\.not_edge
*53 dstage\[10\]\.id\.nreset
*54 dstage\[10\]\.id\.out
*55 dstage\[10\]\.id\.out_del
*56 dstage\[10\]\.id\.prev_in
*57 dstage\[10\]\.id\.ts
*58 dstage\[11\]\.id\.d0
*59 dstage\[11\]\.id\.d1
*60 dstage\[11\]\.id\.d2
*61 dstage\[11\]\.id\.lddtrim\[0\]
*62 dstage\[11\]\.id\.lddtrim\[1\]
*63 dstage\[11\]\.id\.ldotrim\[0\]
*64 dstage\[11\]\.id\.ldotrim\[1\]
*65 dstage\[11\]\.id\.ldtrim\[0\]
*66 dstage\[11\]\.id\.ldtrim\[1\]
*67 dstage\[11\]\.id\.ltrim\[0\]
*68 dstage\[11\]\.id\.ltrim\[1\]
*69 dstage\[11\]\.id\.ltrimb\[0\]
*70 dstage\[11\]\.id\.ltrimb\[1\]
*71 dstage\[11\]\.id\.ltrimbd\[0\]
*72 dstage\[11\]\.id\.ltrimbd\[1\]
*73 dstage\[11\]\.id\.ltrimbdd\[0\]
*74 dstage\[11\]\.id\.ltrimbdd\[1\]
*75 dstage\[11\]\.id\.not_edge
*76 dstage\[11\]\.id\.out
*77 dstage\[11\]\.id\.out_del
*78 dstage\[11\]\.id\.prev_in
*79 dstage\[11\]\.id\.ts
*80 dstage\[2\]\.id\.d0
*81 dstage\[2\]\.id\.d1
*82 dstage\[2\]\.id\.d2
*83 dstage\[2\]\.id\.in
*84 dstage\[2\]\.id\.lddtrim\[0\]
*85 dstage\[2\]\.id\.lddtrim\[1\]
*86 dstage\[2\]\.id\.ldotrim\[0\]
*87 dstage\[2\]\.id\.ldotrim\[1\]
*88 dstage\[2\]\.id\.ldtrim\[0\]
*89 dstage\[2\]\.id\.ldtrim\[1\]
*90 dstage\[2\]\.id\.ltrim\[0\]
*91 dstage\[2\]\.id\.ltrim\[1\]
*92 dstage\[2\]\.id\.ltrimb\[0\]
*93 dstage\[2\]\.id\.ltrimb\[1\]
*94 dstage\[2\]\.id\.ltrimbd\[0\]
*95 dstage\[2\]\.id\.ltrimbd\[1\]
*96 dstage\[2\]\.id\.ltrimbdd\[0\]
*97 dstage\[2\]\.id\.ltrimbdd\[1\]
*98 dstage\[2\]\.id\.not_edge
*99 dstage\[2\]\.id\.out
*100 dstage\[2\]\.id\.out_del
*101 dstage\[2\]\.id\.prev_in
*102 dstage\[2\]\.id\.ts
*103 dstage\[3\]\.id\.d0
*104 dstage\[3\]\.id\.d1
*105 dstage\[3\]\.id\.d2
*106 dstage\[3\]\.id\.lddtrim\[0\]
*107 dstage\[3\]\.id\.lddtrim\[1\]
*108 dstage\[3\]\.id\.ldotrim\[0\]
*109 dstage\[3\]\.id\.ldotrim\[1\]
*110 dstage\[3\]\.id\.ldtrim\[0\]
*111 dstage\[3\]\.id\.ldtrim\[1\]
*112 dstage\[3\]\.id\.ltrim\[0\]
*113 dstage\[3\]\.id\.ltrim\[1\]
*114 dstage\[3\]\.id\.ltrimb\[0\]
*115 dstage\[3\]\.id\.ltrimb\[1\]
*116 dstage\[3\]\.id\.ltrimbd\[0\]
*117 dstage\[3\]\.id\.ltrimbd\[1\]
*118 dstage\[3\]\.id\.ltrimbdd\[0\]
*119 dstage\[3\]\.id\.ltrimbdd\[1\]
*120 dstage\[3\]\.id\.not_edge
*121 dstage\[3\]\.id\.out
*122 dstage\[3\]\.id\.out_del
*123 dstage\[3\]\.id\.prev_in
*124 dstage\[3\]\.id\.ts
*125 dstage\[4\]\.id\.d0
*126 dstage\[4\]\.id\.d1
*127 dstage\[4\]\.id\.d2
*128 dstage\[4\]\.id\.lddtrim\[0\]
*129 dstage\[4\]\.id\.lddtrim\[1\]
*130 dstage\[4\]\.id\.ldotrim\[0\]
*131 dstage\[4\]\.id\.ldotrim\[1\]
*132 dstage\[4\]\.id\.ldtrim\[0\]
*133 dstage\[4\]\.id\.ldtrim\[1\]
*134 dstage\[4\]\.id\.ltrim\[0\]
*135 dstage\[4\]\.id\.ltrim\[1\]
*136 dstage\[4\]\.id\.ltrimb\[0\]
*137 dstage\[4\]\.id\.ltrimb\[1\]
*138 dstage\[4\]\.id\.ltrimbd\[0\]
*139 dstage\[4\]\.id\.ltrimbd\[1\]
*140 dstage\[4\]\.id\.ltrimbdd\[0\]
*141 dstage\[4\]\.id\.ltrimbdd\[1\]
*142 dstage\[4\]\.id\.not_edge
*143 dstage\[4\]\.id\.out
*144 dstage\[4\]\.id\.out_del
*145 dstage\[4\]\.id\.ts
*146 dstage\[5\]\.id\.d0
*147 dstage\[5\]\.id\.d1
*148 dstage\[5\]\.id\.d2
*149 dstage\[5\]\.id\.lddtrim\[0\]
*150 dstage\[5\]\.id\.lddtrim\[1\]
*151 dstage\[5\]\.id\.ldotrim\[0\]
*152 dstage\[5\]\.id\.ldotrim\[1\]
*153 dstage\[5\]\.id\.ldtrim\[0\]
*154 dstage\[5\]\.id\.ldtrim\[1\]
*155 dstage\[5\]\.id\.ltrim\[0\]
*156 dstage\[5\]\.id\.ltrim\[1\]
*157 dstage\[5\]\.id\.ltrimb\[0\]
*158 dstage\[5\]\.id\.ltrimb\[1\]
*159 dstage\[5\]\.id\.ltrimbd\[0\]
*160 dstage\[5\]\.id\.ltrimbd\[1\]
*161 dstage\[5\]\.id\.ltrimbdd\[0\]
*162 dstage\[5\]\.id\.ltrimbdd\[1\]
*163 dstage\[5\]\.id\.not_edge
*164 dstage\[5\]\.id\.out
*165 dstage\[5\]\.id\.out_del
*166 dstage\[5\]\.id\.ts
*167 dstage\[6\]\.id\.d0
*168 dstage\[6\]\.id\.d1
*169 dstage\[6\]\.id\.d2
*170 dstage\[6\]\.id\.lddtrim\[0\]
*171 dstage\[6\]\.id\.lddtrim\[1\]
*172 dstage\[6\]\.id\.ldotrim\[0\]
*173 dstage\[6\]\.id\.ldotrim\[1\]
*174 dstage\[6\]\.id\.ldtrim\[0\]
*175 dstage\[6\]\.id\.ldtrim\[1\]
*176 dstage\[6\]\.id\.ltrim\[0\]
*177 dstage\[6\]\.id\.ltrim\[1\]
*178 dstage\[6\]\.id\.ltrimb\[0\]
*179 dstage\[6\]\.id\.ltrimb\[1\]
*180 dstage\[6\]\.id\.ltrimbd\[0\]
*181 dstage\[6\]\.id\.ltrimbd\[1\]
*182 dstage\[6\]\.id\.ltrimbdd\[0\]
*183 dstage\[6\]\.id\.ltrimbdd\[1\]
*184 dstage\[6\]\.id\.not_edge
*185 dstage\[6\]\.id\.out
*186 dstage\[6\]\.id\.out_del
*187 dstage\[6\]\.id\.ts
*188 dstage\[7\]\.id\.d0
*189 dstage\[7\]\.id\.d1
*190 dstage\[7\]\.id\.d2
*191 dstage\[7\]\.id\.lddtrim\[0\]
*192 dstage\[7\]\.id\.lddtrim\[1\]
*193 dstage\[7\]\.id\.ldotrim\[0\]
*194 dstage\[7\]\.id\.ldotrim\[1\]
*195 dstage\[7\]\.id\.ldtrim\[0\]
*196 dstage\[7\]\.id\.ldtrim\[1\]
*197 dstage\[7\]\.id\.ltrim\[0\]
*198 dstage\[7\]\.id\.ltrim\[1\]
*199 dstage\[7\]\.id\.ltrimb\[0\]
*200 dstage\[7\]\.id\.ltrimb\[1\]
*201 dstage\[7\]\.id\.ltrimbd\[0\]
*202 dstage\[7\]\.id\.ltrimbd\[1\]
*203 dstage\[7\]\.id\.ltrimbdd\[0\]
*204 dstage\[7\]\.id\.ltrimbdd\[1\]
*205 dstage\[7\]\.id\.not_edge
*206 dstage\[7\]\.id\.out_del
*207 dstage\[7\]\.id\.ts
*208 dstage\[8\]\.id\.d0
*209 dstage\[8\]\.id\.d1
*210 dstage\[8\]\.id\.d2
*211 dstage\[8\]\.id\.lddtrim\[0\]
*212 dstage\[8\]\.id\.lddtrim\[1\]
*213 dstage\[8\]\.id\.ldotrim\[0\]
*214 dstage\[8\]\.id\.ldotrim\[1\]
*215 dstage\[8\]\.id\.ldtrim\[0\]
*216 dstage\[8\]\.id\.ldtrim\[1\]
*217 dstage\[8\]\.id\.ltrim\[0\]
*218 dstage\[8\]\.id\.ltrim\[1\]
*219 dstage\[8\]\.id\.ltrimb\[0\]
*220 dstage\[8\]\.id\.ltrimb\[1\]
*221 dstage\[8\]\.id\.ltrimbd\[0\]
*222 dstage\[8\]\.id\.ltrimbd\[1\]
*223 dstage\[8\]\.id\.ltrimbdd\[0\]
*224 dstage\[8\]\.id\.ltrimbdd\[1\]
*225 dstage\[8\]\.id\.not_edge
*226 dstage\[8\]\.id\.out_del
*227 dstage\[8\]\.id\.ts
*228 dstage\[9\]\.id\.d0
*229 dstage\[9\]\.id\.d1
*230 dstage\[9\]\.id\.d2
*231 dstage\[9\]\.id\.lddtrim\[0\]
*232 dstage\[9\]\.id\.lddtrim\[1\]
*233 dstage\[9\]\.id\.ldotrim\[0\]
*234 dstage\[9\]\.id\.ldotrim\[1\]
*235 dstage\[9\]\.id\.ldtrim\[0\]
*236 dstage\[9\]\.id\.ldtrim\[1\]
*237 dstage\[9\]\.id\.ltrim\[0\]
*238 dstage\[9\]\.id\.ltrim\[1\]
*239 dstage\[9\]\.id\.ltrimb\[0\]
*240 dstage\[9\]\.id\.ltrimb\[1\]
*241 dstage\[9\]\.id\.ltrimbd\[0\]
*242 dstage\[9\]\.id\.ltrimbd\[1\]
*243 dstage\[9\]\.id\.ltrimbdd\[0\]
*244 dstage\[9\]\.id\.ltrimbdd\[1\]
*245 dstage\[9\]\.id\.not_edge
*246 dstage\[9\]\.id\.out_del
*247 dstage\[9\]\.id\.ts
*248 id0\.d0
*249 id0\.d1
*250 id0\.d2
*251 id0\.lddtrim\[0\]
*252 id0\.lddtrim\[1\]
*253 id0\.ldotrim\[0\]
*254 id0\.ldotrim\[1\]
*255 id0\.ldtrim\[0\]
*256 id0\.ldtrim\[1\]
*257 id0\.ltrim\[0\]
*258 id0\.ltrim\[1\]
*259 id0\.ltrimb\[0\]
*260 id0\.ltrimb\[1\]
*261 id0\.ltrimbd\[0\]
*262 id0\.ltrimbd\[1\]
*263 id0\.ltrimbdd\[0\]
*264 id0\.ltrimbdd\[1\]
*265 id0\.not_edge
*266 id0\.out_del
*267 id0\.ts
*268 id1\.d0
*269 id1\.d1
*270 id1\.d2
*271 id1\.lddtrim\[0\]
*272 id1\.lddtrim\[1\]
*273 id1\.ldotrim\[0\]
*274 id1\.ldotrim\[1\]
*275 id1\.ldtrim\[0\]
*276 id1\.ldtrim\[1\]
*277 id1\.ltrim\[0\]
*278 id1\.ltrim\[1\]
*279 id1\.ltrimb\[0\]
*280 id1\.ltrimb\[1\]
*281 id1\.ltrimbd\[0\]
*282 id1\.ltrimbd\[1\]
*283 id1\.ltrimbdd\[0\]
*284 id1\.ltrimbdd\[1\]
*285 id1\.not_edge
*286 id1\.out_del
*287 id1\.ts
*288 iss\.ctrl0b
*289 iss\.d0
*290 iss\.d1
*291 iss\.d2
*292 iss\.ltrim\[0\]
*293 iss\.ltrim\[1\]
*294 iss\.not_edge
*295 iss\.nreset_del
*296 iss\.out_del
*297 iss\.out_precg
*298 iss\.trim1b
*299 net
*300 ANTENNA__0__I
*301 ANTENNA_dstage\[10\]\.id\.t0_latch_D
*302 ANTENNA_dstage\[10\]\.id\.t1_latch_D
*303 ANTENNA_dstage\[11\]\.id\.t0_latch_D
*304 ANTENNA_dstage\[11\]\.id\.t1_latch_D
*305 ANTENNA_dstage\[2\]\.id\.t0_latch_D
*306 ANTENNA_dstage\[2\]\.id\.t1_latch_D
*307 ANTENNA_dstage\[3\]\.id\.t0_latch_D
*308 ANTENNA_dstage\[3\]\.id\.t1_latch_D
*309 ANTENNA_dstage\[4\]\.id\.t0_latch_D
*310 ANTENNA_dstage\[4\]\.id\.t1_latch_D
*311 ANTENNA_dstage\[5\]\.id\.t0_latch_D
*312 ANTENNA_dstage\[5\]\.id\.t1_latch_D
*313 ANTENNA_dstage\[6\]\.id\.t0_latch_D
*314 ANTENNA_dstage\[6\]\.id\.t1_latch_D
*315 ANTENNA_dstage\[7\]\.id\.t0_latch_D
*316 ANTENNA_dstage\[7\]\.id\.t1_latch_D
*317 ANTENNA_dstage\[8\]\.id\.t0_latch_D
*318 ANTENNA_dstage\[8\]\.id\.t1_latch_D
*319 ANTENNA_dstage\[9\]\.id\.t0_latch_D
*320 ANTENNA_dstage\[9\]\.id\.t1_latch_D
*321 ANTENNA_id0\.t0_latch_D
*322 ANTENNA_id0\.t1_latch_D
*323 ANTENNA_id1\.t0_latch_D
*324 ANTENNA_id1\.t1_latch_D
*325 ANTENNA_iss\.ctrlen0_A1
*326 ANTENNA_iss\.reseten0_EN
*327 ANTENNA_iss\.t0_latch_D
*328 ANTENNA_iss\.t1_latch_D
*329 FILLER_0_104
*330 FILLER_0_131
*331 FILLER_0_135
*332 FILLER_0_162
*333 FILLER_0_166
*334 FILLER_0_168
*335 FILLER_0_4
*336 FILLER_0_95
*337 FILLER_10_168
*338 FILLER_10_34
*339 FILLER_10_63
*340 FILLER_10_79
*341 FILLER_11_118
*342 FILLER_11_154
*343 FILLER_11_162
*344 FILLER_11_166
*345 FILLER_11_168
*346 FILLER_11_4
*347 FILLER_11_62
*348 FILLER_11_95
*349 FILLER_12_131
*350 FILLER_12_156
*351 FILLER_12_164
*352 FILLER_12_168
*353 FILLER_12_28
*354 FILLER_12_37
*355 FILLER_12_56
*356 FILLER_12_88
*357 FILLER_13_139
*358 FILLER_13_159
*359 FILLER_13_167
*360 FILLER_13_4
*361 FILLER_13_45
*362 FILLER_13_67
*363 FILLER_14_119
*364 FILLER_14_160
*365 FILLER_14_168
*366 FILLER_14_45
*367 FILLER_15_148
*368 FILLER_15_164
*369 FILLER_15_168
*370 FILLER_15_6
*371 FILLER_16_107
*372 FILLER_16_109
*373 FILLER_16_122
*374 FILLER_16_153
*375 FILLER_16_34
*376 FILLER_17_112
*377 FILLER_17_114
*378 FILLER_17_137
*379 FILLER_17_139
*380 FILLER_17_154
*381 FILLER_17_162
*382 FILLER_17_166
*383 FILLER_17_168
*384 FILLER_17_2
*385 FILLER_17_42
*386 FILLER_17_46
*387 FILLER_17_67
*388 FILLER_17_69
*389 FILLER_17_89
*390 FILLER_18_102
*391 FILLER_18_104
*392 FILLER_18_117
*393 FILLER_18_124
*394 FILLER_18_152
*395 FILLER_18_168
*396 FILLER_18_2
*397 FILLER_18_43
*398 FILLER_18_95
*399 FILLER_19_137
*400 FILLER_19_139
*401 FILLER_19_148
*402 FILLER_19_164
*403 FILLER_19_168
*404 FILLER_19_47
*405 FILLER_19_49
*406 FILLER_19_72
*407 FILLER_19_91
*408 FILLER_1_166
*409 FILLER_1_168
*410 FILLER_1_63
*411 FILLER_20_107
*412 FILLER_20_137
*413 FILLER_20_37
*414 FILLER_20_4
*415 FILLER_20_93
*416 FILLER_21_142
*417 FILLER_21_158
*418 FILLER_21_166
*419 FILLER_21_168
*420 FILLER_21_26
*421 FILLER_22_102
*422 FILLER_22_104
*423 FILLER_22_119
*424 FILLER_22_121
*425 FILLER_22_152
*426 FILLER_22_168
*427 FILLER_22_24
*428 FILLER_22_47
*429 FILLER_22_87
*430 FILLER_23_127
*431 FILLER_23_134
*432 FILLER_23_144
*433 FILLER_23_160
*434 FILLER_23_168
*435 FILLER_23_36
*436 FILLER_23_67
*437 FILLER_23_70
*438 FILLER_23_72
*439 FILLER_23_81
*440 FILLER_23_95
*441 FILLER_2_103
*442 FILLER_2_113
*443 FILLER_2_164
*444 FILLER_2_168
*445 FILLER_2_28
*446 FILLER_3_122
*447 FILLER_3_166
*448 FILLER_3_168
*449 FILLER_3_4
*450 FILLER_3_69
*451 FILLER_3_72
*452 FILLER_4_115
*453 FILLER_4_117
*454 FILLER_4_157
*455 FILLER_4_165
*456 FILLER_4_24
*457 FILLER_5_109
*458 FILLER_5_111
*459 FILLER_5_154
*460 FILLER_5_162
*461 FILLER_5_166
*462 FILLER_5_168
*463 FILLER_5_2
*464 FILLER_5_69
*465 FILLER_5_84
*466 FILLER_6_107
*467 FILLER_6_124
*468 FILLER_6_164
*469 FILLER_6_168
*470 FILLER_6_24
*471 FILLER_6_98
*472 FILLER_7_115
*473 FILLER_7_154
*474 FILLER_7_162
*475 FILLER_7_166
*476 FILLER_7_168
*477 FILLER_7_68
*478 FILLER_7_98
*479 FILLER_8_107
*480 FILLER_8_125
*481 FILLER_8_156
*482 FILLER_8_164
*483 FILLER_8_168
*484 FILLER_8_24
*485 FILLER_8_62
*486 FILLER_8_80
*487 FILLER_9_111
*488 FILLER_9_122
*489 FILLER_9_150
*490 FILLER_9_166
*491 FILLER_9_168
*492 FILLER_9_69
*493 PHY_EDGE_ROW_0_Left_24
*494 PHY_EDGE_ROW_0_Right_0
*495 PHY_EDGE_ROW_10_Left_34
*496 PHY_EDGE_ROW_10_Right_10
*497 PHY_EDGE_ROW_11_Left_35
*498 PHY_EDGE_ROW_11_Right_11
*499 PHY_EDGE_ROW_12_Left_36
*500 PHY_EDGE_ROW_12_Right_12
*501 PHY_EDGE_ROW_13_Left_37
*502 PHY_EDGE_ROW_13_Right_13
*503 PHY_EDGE_ROW_14_Left_38
*504 PHY_EDGE_ROW_14_Right_14
*505 PHY_EDGE_ROW_15_Left_39
*506 PHY_EDGE_ROW_15_Right_15
*507 PHY_EDGE_ROW_16_Left_40
*508 PHY_EDGE_ROW_16_Right_16
*509 PHY_EDGE_ROW_17_Left_41
*510 PHY_EDGE_ROW_17_Right_17
*511 PHY_EDGE_ROW_18_Left_42
*512 PHY_EDGE_ROW_18_Right_18
*513 PHY_EDGE_ROW_19_Left_43
*514 PHY_EDGE_ROW_19_Right_19
*515 PHY_EDGE_ROW_1_Left_25
*516 PHY_EDGE_ROW_1_Right_1
*517 PHY_EDGE_ROW_20_Left_44
*518 PHY_EDGE_ROW_20_Right_20
*519 PHY_EDGE_ROW_21_Left_45
*520 PHY_EDGE_ROW_21_Right_21
*521 PHY_EDGE_ROW_22_Left_46
*522 PHY_EDGE_ROW_22_Right_22
*523 PHY_EDGE_ROW_23_Left_47
*524 PHY_EDGE_ROW_23_Right_23
*525 PHY_EDGE_ROW_2_Left_26
*526 PHY_EDGE_ROW_2_Right_2
*527 PHY_EDGE_ROW_3_Left_27
*528 PHY_EDGE_ROW_3_Right_3
*529 PHY_EDGE_ROW_4_Left_28
*530 PHY_EDGE_ROW_4_Right_4
*531 PHY_EDGE_ROW_5_Left_29
*532 PHY_EDGE_ROW_5_Right_5
*533 PHY_EDGE_ROW_6_Left_30
*534 PHY_EDGE_ROW_6_Right_6
*535 PHY_EDGE_ROW_7_Left_31
*536 PHY_EDGE_ROW_7_Right_7
*537 PHY_EDGE_ROW_8_Left_32
*538 PHY_EDGE_ROW_8_Right_8
*539 PHY_EDGE_ROW_9_Left_33
*540 PHY_EDGE_ROW_9_Right_9
*541 TAP_TAPCELL_ROW_0_48
*542 TAP_TAPCELL_ROW_0_49
*543 TAP_TAPCELL_ROW_0_50
*544 TAP_TAPCELL_ROW_0_51
*545 TAP_TAPCELL_ROW_10_70
*546 TAP_TAPCELL_ROW_10_71
*547 TAP_TAPCELL_ROW_11_72
*548 TAP_TAPCELL_ROW_11_73
*549 TAP_TAPCELL_ROW_12_74
*550 TAP_TAPCELL_ROW_12_75
*551 TAP_TAPCELL_ROW_13_76
*552 TAP_TAPCELL_ROW_13_77
*553 TAP_TAPCELL_ROW_14_78
*554 TAP_TAPCELL_ROW_14_79
*555 TAP_TAPCELL_ROW_15_80
*556 TAP_TAPCELL_ROW_15_81
*557 TAP_TAPCELL_ROW_16_82
*558 TAP_TAPCELL_ROW_16_83
*559 TAP_TAPCELL_ROW_17_84
*560 TAP_TAPCELL_ROW_17_85
*561 TAP_TAPCELL_ROW_18_86
*562 TAP_TAPCELL_ROW_18_87
*563 TAP_TAPCELL_ROW_19_88
*564 TAP_TAPCELL_ROW_19_89
*565 TAP_TAPCELL_ROW_1_52
*566 TAP_TAPCELL_ROW_1_53
*567 TAP_TAPCELL_ROW_20_90
*568 TAP_TAPCELL_ROW_20_91
*569 TAP_TAPCELL_ROW_21_92
*570 TAP_TAPCELL_ROW_21_93
*571 TAP_TAPCELL_ROW_22_94
*572 TAP_TAPCELL_ROW_22_95
*573 TAP_TAPCELL_ROW_23_96
*574 TAP_TAPCELL_ROW_23_97
*575 TAP_TAPCELL_ROW_23_98
*576 TAP_TAPCELL_ROW_23_99
*577 TAP_TAPCELL_ROW_2_54
*578 TAP_TAPCELL_ROW_2_55
*579 TAP_TAPCELL_ROW_3_56
*580 TAP_TAPCELL_ROW_3_57
*581 TAP_TAPCELL_ROW_4_58
*582 TAP_TAPCELL_ROW_4_59
*583 TAP_TAPCELL_ROW_5_60
*584 TAP_TAPCELL_ROW_5_61
*585 TAP_TAPCELL_ROW_6_62
*586 TAP_TAPCELL_ROW_6_63
*587 TAP_TAPCELL_ROW_7_64
*588 TAP_TAPCELL_ROW_7_65
*589 TAP_TAPCELL_ROW_8_66
*590 TAP_TAPCELL_ROW_8_67
*591 TAP_TAPCELL_ROW_9_68
*592 TAP_TAPCELL_ROW_9_69
*593 _0_
*594 dstage\[10\]\.id\.deglitch_buf
*595 dstage\[10\]\.id\.delaybuf0
*596 dstage\[10\]\.id\.delaybuf1
*597 dstage\[10\]\.id\.delayen0
*598 dstage\[10\]\.id\.delayen1
*599 dstage\[10\]\.id\.delayenb0
*600 dstage\[10\]\.id\.delayenb1
*601 dstage\[10\]\.id\.delayint0
*602 dstage\[10\]\.id\.t0_latch
*603 dstage\[10\]\.id\.t0l_delay
*604 dstage\[10\]\.id\.t0l_delay2
*605 dstage\[10\]\.id\.t0ld_or
*606 dstage\[10\]\.id\.t1_latch
*607 dstage\[10\]\.id\.t1l_delay
*608 dstage\[10\]\.id\.t1l_delay2
*609 dstage\[10\]\.id\.t1ld_or
*610 dstage\[10\]\.id\.trim0bar
*611 dstage\[10\]\.id\.trim0bar_del0
*612 dstage\[10\]\.id\.trim0bar_del1
*613 dstage\[10\]\.id\.trim1bar
*614 dstage\[10\]\.id\.trim1bar_del0
*615 dstage\[10\]\.id\.trim1bar_del1
*616 dstage\[10\]\.id\.trim_inhibit
*617 dstage\[11\]\.id\.deglitch_buf
*618 dstage\[11\]\.id\.delaybuf0
*619 dstage\[11\]\.id\.delaybuf1
*620 dstage\[11\]\.id\.delayen0
*621 dstage\[11\]\.id\.delayen1
*622 dstage\[11\]\.id\.delayenb0
*623 dstage\[11\]\.id\.delayenb1
*624 dstage\[11\]\.id\.delayint0
*625 dstage\[11\]\.id\.t0_latch
*626 dstage\[11\]\.id\.t0l_delay
*627 dstage\[11\]\.id\.t0l_delay2
*628 dstage\[11\]\.id\.t0ld_or
*629 dstage\[11\]\.id\.t1_latch
*630 dstage\[11\]\.id\.t1l_delay
*631 dstage\[11\]\.id\.t1l_delay2
*632 dstage\[11\]\.id\.t1ld_or
*633 dstage\[11\]\.id\.trim0bar
*634 dstage\[11\]\.id\.trim0bar_del0
*635 dstage\[11\]\.id\.trim0bar_del1
*636 dstage\[11\]\.id\.trim1bar
*637 dstage\[11\]\.id\.trim1bar_del0
*638 dstage\[11\]\.id\.trim1bar_del1
*639 dstage\[11\]\.id\.trim_inhibit
*640 dstage\[2\]\.id\.deglitch_buf
*641 dstage\[2\]\.id\.delaybuf0
*642 dstage\[2\]\.id\.delaybuf1
*643 dstage\[2\]\.id\.delayen0
*644 dstage\[2\]\.id\.delayen1
*645 dstage\[2\]\.id\.delayenb0
*646 dstage\[2\]\.id\.delayenb1
*647 dstage\[2\]\.id\.delayint0
*648 dstage\[2\]\.id\.t0_latch
*649 dstage\[2\]\.id\.t0l_delay
*650 dstage\[2\]\.id\.t0l_delay2
*651 dstage\[2\]\.id\.t0ld_or
*652 dstage\[2\]\.id\.t1_latch
*653 dstage\[2\]\.id\.t1l_delay
*654 dstage\[2\]\.id\.t1l_delay2
*655 dstage\[2\]\.id\.t1ld_or
*656 dstage\[2\]\.id\.trim0bar
*657 dstage\[2\]\.id\.trim0bar_del0
*658 dstage\[2\]\.id\.trim0bar_del1
*659 dstage\[2\]\.id\.trim1bar
*660 dstage\[2\]\.id\.trim1bar_del0
*661 dstage\[2\]\.id\.trim1bar_del1
*662 dstage\[2\]\.id\.trim_inhibit
*663 dstage\[3\]\.id\.deglitch_buf
*664 dstage\[3\]\.id\.delaybuf0
*665 dstage\[3\]\.id\.delaybuf1
*666 dstage\[3\]\.id\.delayen0
*667 dstage\[3\]\.id\.delayen1
*668 dstage\[3\]\.id\.delayenb0
*669 dstage\[3\]\.id\.delayenb1
*670 dstage\[3\]\.id\.delayint0
*671 dstage\[3\]\.id\.t0_latch
*672 dstage\[3\]\.id\.t0l_delay
*673 dstage\[3\]\.id\.t0l_delay2
*674 dstage\[3\]\.id\.t0ld_or
*675 dstage\[3\]\.id\.t1_latch
*676 dstage\[3\]\.id\.t1l_delay
*677 dstage\[3\]\.id\.t1l_delay2
*678 dstage\[3\]\.id\.t1ld_or
*679 dstage\[3\]\.id\.trim0bar
*680 dstage\[3\]\.id\.trim0bar_del0
*681 dstage\[3\]\.id\.trim0bar_del1
*682 dstage\[3\]\.id\.trim1bar
*683 dstage\[3\]\.id\.trim1bar_del0
*684 dstage\[3\]\.id\.trim1bar_del1
*685 dstage\[3\]\.id\.trim_inhibit
*686 dstage\[4\]\.id\.deglitch_buf
*687 dstage\[4\]\.id\.delaybuf0
*688 dstage\[4\]\.id\.delaybuf1
*689 dstage\[4\]\.id\.delayen0
*690 dstage\[4\]\.id\.delayen1
*691 dstage\[4\]\.id\.delayenb0
*692 dstage\[4\]\.id\.delayenb1
*693 dstage\[4\]\.id\.delayint0
*694 dstage\[4\]\.id\.t0_latch
*695 dstage\[4\]\.id\.t0l_delay
*696 dstage\[4\]\.id\.t0l_delay2
*697 dstage\[4\]\.id\.t0ld_or
*698 dstage\[4\]\.id\.t1_latch
*699 dstage\[4\]\.id\.t1l_delay
*700 dstage\[4\]\.id\.t1l_delay2
*701 dstage\[4\]\.id\.t1ld_or
*702 dstage\[4\]\.id\.trim0bar
*703 dstage\[4\]\.id\.trim0bar_del0
*704 dstage\[4\]\.id\.trim0bar_del1
*705 dstage\[4\]\.id\.trim1bar
*706 dstage\[4\]\.id\.trim1bar_del0
*707 dstage\[4\]\.id\.trim1bar_del1
*708 dstage\[4\]\.id\.trim_inhibit
*709 dstage\[5\]\.id\.deglitch_buf
*710 dstage\[5\]\.id\.delaybuf0
*711 dstage\[5\]\.id\.delaybuf1
*712 dstage\[5\]\.id\.delayen0
*713 dstage\[5\]\.id\.delayen1
*714 dstage\[5\]\.id\.delayenb0
*715 dstage\[5\]\.id\.delayenb1
*716 dstage\[5\]\.id\.delayint0
*717 dstage\[5\]\.id\.t0_latch
*718 dstage\[5\]\.id\.t0l_delay
*719 dstage\[5\]\.id\.t0l_delay2
*720 dstage\[5\]\.id\.t0ld_or
*721 dstage\[5\]\.id\.t1_latch
*722 dstage\[5\]\.id\.t1l_delay
*723 dstage\[5\]\.id\.t1l_delay2
*724 dstage\[5\]\.id\.t1ld_or
*725 dstage\[5\]\.id\.trim0bar
*726 dstage\[5\]\.id\.trim0bar_del0
*727 dstage\[5\]\.id\.trim0bar_del1
*728 dstage\[5\]\.id\.trim1bar
*729 dstage\[5\]\.id\.trim1bar_del0
*730 dstage\[5\]\.id\.trim1bar_del1
*731 dstage\[5\]\.id\.trim_inhibit
*732 dstage\[6\]\.id\.deglitch_buf
*733 dstage\[6\]\.id\.delaybuf0
*734 dstage\[6\]\.id\.delaybuf1
*735 dstage\[6\]\.id\.delayen0
*736 dstage\[6\]\.id\.delayen1
*737 dstage\[6\]\.id\.delayenb0
*738 dstage\[6\]\.id\.delayenb1
*739 dstage\[6\]\.id\.delayint0
*740 dstage\[6\]\.id\.t0_latch
*741 dstage\[6\]\.id\.t0l_delay
*742 dstage\[6\]\.id\.t0l_delay2
*743 dstage\[6\]\.id\.t0ld_or
*744 dstage\[6\]\.id\.t1_latch
*745 dstage\[6\]\.id\.t1l_delay
*746 dstage\[6\]\.id\.t1l_delay2
*747 dstage\[6\]\.id\.t1ld_or
*748 dstage\[6\]\.id\.trim0bar
*749 dstage\[6\]\.id\.trim0bar_del0
*750 dstage\[6\]\.id\.trim0bar_del1
*751 dstage\[6\]\.id\.trim1bar
*752 dstage\[6\]\.id\.trim1bar_del0
*753 dstage\[6\]\.id\.trim1bar_del1
*754 dstage\[6\]\.id\.trim_inhibit
*755 dstage\[7\]\.id\.deglitch_buf
*756 dstage\[7\]\.id\.delaybuf0
*757 dstage\[7\]\.id\.delaybuf1
*758 dstage\[7\]\.id\.delayen0
*759 dstage\[7\]\.id\.delayen1
*760 dstage\[7\]\.id\.delayenb0
*761 dstage\[7\]\.id\.delayenb1
*762 dstage\[7\]\.id\.delayint0
*763 dstage\[7\]\.id\.t0_latch
*764 dstage\[7\]\.id\.t0l_delay
*765 dstage\[7\]\.id\.t0l_delay2
*766 dstage\[7\]\.id\.t0ld_or
*767 dstage\[7\]\.id\.t1_latch
*768 dstage\[7\]\.id\.t1l_delay
*769 dstage\[7\]\.id\.t1l_delay2
*770 dstage\[7\]\.id\.t1ld_or
*771 dstage\[7\]\.id\.trim0bar
*772 dstage\[7\]\.id\.trim0bar_del0
*773 dstage\[7\]\.id\.trim0bar_del1
*774 dstage\[7\]\.id\.trim1bar
*775 dstage\[7\]\.id\.trim1bar_del0
*776 dstage\[7\]\.id\.trim1bar_del1
*777 dstage\[7\]\.id\.trim_inhibit
*778 dstage\[8\]\.id\.deglitch_buf
*779 dstage\[8\]\.id\.delaybuf0
*780 dstage\[8\]\.id\.delaybuf1
*781 dstage\[8\]\.id\.delayen0
*782 dstage\[8\]\.id\.delayen1
*783 dstage\[8\]\.id\.delayenb0
*784 dstage\[8\]\.id\.delayenb1
*785 dstage\[8\]\.id\.delayint0
*786 dstage\[8\]\.id\.t0_latch
*787 dstage\[8\]\.id\.t0l_delay
*788 dstage\[8\]\.id\.t0l_delay2
*789 dstage\[8\]\.id\.t0ld_or
*790 dstage\[8\]\.id\.t1_latch
*791 dstage\[8\]\.id\.t1l_delay
*792 dstage\[8\]\.id\.t1l_delay2
*793 dstage\[8\]\.id\.t1ld_or
*794 dstage\[8\]\.id\.trim0bar
*795 dstage\[8\]\.id\.trim0bar_del0
*796 dstage\[8\]\.id\.trim0bar_del1
*797 dstage\[8\]\.id\.trim1bar
*798 dstage\[8\]\.id\.trim1bar_del0
*799 dstage\[8\]\.id\.trim1bar_del1
*800 dstage\[8\]\.id\.trim_inhibit
*801 dstage\[9\]\.id\.deglitch_buf
*802 dstage\[9\]\.id\.delaybuf0
*803 dstage\[9\]\.id\.delaybuf1
*804 dstage\[9\]\.id\.delayen0
*805 dstage\[9\]\.id\.delayen1
*806 dstage\[9\]\.id\.delayenb0
*807 dstage\[9\]\.id\.delayenb1
*808 dstage\[9\]\.id\.delayint0
*809 dstage\[9\]\.id\.t0_latch
*810 dstage\[9\]\.id\.t0l_delay
*811 dstage\[9\]\.id\.t0l_delay2
*812 dstage\[9\]\.id\.t0ld_or
*813 dstage\[9\]\.id\.t1_latch
*814 dstage\[9\]\.id\.t1l_delay
*815 dstage\[9\]\.id\.t1l_delay2
*816 dstage\[9\]\.id\.t1ld_or
*817 dstage\[9\]\.id\.trim0bar
*818 dstage\[9\]\.id\.trim0bar_del0
*819 dstage\[9\]\.id\.trim0bar_del1
*820 dstage\[9\]\.id\.trim1bar
*821 dstage\[9\]\.id\.trim1bar_del0
*822 dstage\[9\]\.id\.trim1bar_del1
*823 dstage\[9\]\.id\.trim_inhibit
*824 ibufp00
*825 ibufp01
*826 ibufp10
*827 ibufp11
*828 id0\.deglitch_buf
*829 id0\.delaybuf0
*830 id0\.delaybuf1
*831 id0\.delayen0
*832 id0\.delayen1
*833 id0\.delayenb0
*834 id0\.delayenb1
*835 id0\.delayint0
*836 id0\.t0_latch
*837 id0\.t0l_delay
*838 id0\.t0l_delay2
*839 id0\.t0ld_or
*840 id0\.t1_latch
*841 id0\.t1l_delay
*842 id0\.t1l_delay2
*843 id0\.t1ld_or
*844 id0\.trim0bar
*845 id0\.trim0bar_del0
*846 id0\.trim0bar_del1
*847 id0\.trim1bar
*848 id0\.trim1bar_del0
*849 id0\.trim1bar_del1
*850 id0\.trim_inhibit
*851 id1\.deglitch_buf
*852 id1\.delaybuf0
*853 id1\.delaybuf1
*854 id1\.delayen0
*855 id1\.delayen1
*856 id1\.delayenb0
*857 id1\.delayenb1
*858 id1\.delayint0
*859 id1\.t0_latch
*860 id1\.t0l_delay
*861 id1\.t0l_delay2
*862 id1\.t0ld_or
*863 id1\.t1_latch
*864 id1\.t1l_delay
*865 id1\.t1l_delay2
*866 id1\.t1ld_or
*867 id1\.trim0bar
*868 id1\.trim0bar_del0
*869 id1\.trim0bar_del1
*870 id1\.trim1bar
*871 id1\.trim1bar_del0
*872 id1\.trim1bar_del1
*873 id1\.trim_inhibit
*874 iss\.cg_and
*875 iss\.ctrlen0
*876 iss\.deglitch_buf
*877 iss\.delaybuf0
*878 iss\.delayen0
*879 iss\.delayen1
*880 iss\.delayenb0
*881 iss\.delayenb1
*882 iss\.delayint0
*883 iss\.nreset_delay
*884 iss\.reseten0
*885 iss\.reseten0_1
*886 iss\.t0_latch
*887 iss\.t1_latch
*888 iss\.trim1bar
*889 iss\.trim_inhibit

*PORTS
clockp[0] O
clockp[1] O
reset I
trim[0] I
trim[10] I
trim[11] I
trim[12] I
trim[13] I
trim[14] I
trim[15] I
trim[16] I
trim[17] I
trim[18] I
trim[19] I
trim[1] I
trim[20] I
trim[21] I
trim[22] I
trim[23] I
trim[24] I
trim[25] I
trim[2] I
trim[3] I
trim[4] I
trim[5] I
trim[6] I
trim[7] I
trim[8] I
trim[9] I

*D_NET *3 0.00409234
*CONN
*P clockp[0] O
*I *825:ZN O *D gf180mcu_fd_sc_mcu7t5v0__clkinv_8
*CAP
1 clockp[0] 0.000721145
2 *825:ZN 0.000721145
3 clockp[0] *620:EN 0
4 clockp[0] *622:EN 0
5 clockp[0] *622:I 0.000412354
6 clockp[0] *624:I 0.000267542
7 clockp[0] *626:I 1.44901e-05
8 clockp[0] *635:I 0
9 clockp[0] *822:I 0.00123949
10 clockp[0] *19:13 3.55118e-05
11 clockp[0] *23:15 0.000168523
12 clockp[0] *76:14 0.000512144
*RES
1 *825:ZN clockp[0] 21.5904 
*END

*D_NET *4 0.0013555
*CONN
*P clockp[1] O
*I *827:ZN O *D gf180mcu_fd_sc_mcu7t5v0__clkinv_8
*CAP
1 clockp[1] 0.000408365
2 *827:ZN 0.000408365
3 clockp[1] *628:A1 0
4 clockp[1] *780:I 5.30888e-06
5 clockp[1] *826:I 0.00015997
6 clockp[1] *827:I 0.00037349
*RES
1 *827:ZN clockp[1] 8.09036 
*END

*D_NET *5 0.0123605
*CONN
*P reset I
*I *326:I I *D gf180mcu_fd_sc_mcu7t5v0__antenna
*I *884:EN I *D gf180mcu_fd_sc_mcu7t5v0__invz_1
*I *593:I I *D gf180mcu_fd_sc_mcu7t5v0__clkinv_1
*I *325:I I *D gf180mcu_fd_sc_mcu7t5v0__antenna
*I *875:A1 I *D gf180mcu_fd_sc_mcu7t5v0__nor2_2
*I *300:I I *D gf180mcu_fd_sc_mcu7t5v0__antenna
*CAP
1 reset 0.00180823
2 *326:I 0.000301185
3 *884:EN 0.000128703
4 *593:I 1.92395e-05
5 *325:I 0
6 *875:A1 8.49805e-05
7 *300:I 0
8 *5:38 0.000272654
9 *5:31 0.000227317
10 *5:27 0.000663727
11 *5:23 0.0011086
12 *5:17 0.00248447
13 *326:I *715:EN 1.99908e-05
14 *326:I *730:I 0.000177559
15 *326:I *744:E 0
16 *326:I *884:I 5.0809e-05
17 *326:I *176:19 3.57113e-05
18 *593:I *30:29 0
19 *593:I *53:82 9.84908e-05
20 *875:A1 *30:29 0.000354738
21 *875:A1 *292:6 0.000129618
22 *884:EN *313:I 0.000207479
23 *884:EN *740:D 5.97457e-06
24 *884:EN *754:A2 0.000202609
25 *884:EN *874:A1 2.40933e-06
26 *884:EN *185:24 3.32853e-05
27 *5:17 *709:I 0.000516376
28 *5:17 *712:I 4.79098e-05
29 *5:17 *713:EN 0
30 *5:17 *715:EN 9.06369e-06
31 *5:17 *717:RN 0
32 *5:17 *720:A1 0.000998619
33 *5:17 *721:D 0
34 *5:17 *731:A2 2.65444e-06
35 *5:17 *800:A1 0.000195939
36 *5:17 *884:I 6.19119e-05
37 *5:17 *164:12 2.18436e-05
38 *5:17 *176:10 6.99911e-06
39 *5:17 *184:8 0
40 *5:23 *731:A2 0
41 *5:23 *800:A1 0.000236845
42 *5:23 *185:14 0
43 *5:27 *616:A1 5.00297e-05
44 *5:27 *800:A1 0.000411561
45 *5:27 *823:A1 5.54383e-05
46 *5:27 *101:8 3.19452e-05
47 *5:27 *185:24 0.000108295
48 *5:31 *616:A1 0.00018838
49 *5:31 *823:A1 8.04753e-05
50 *5:38 *30:29 0.000391005
51 *5:38 *53:82 1.14516e-05
52 *5:38 *53:89 6.75054e-06
53 *5:38 *53:231 1.69023e-06
54 *5:38 *292:6 0.000507492
*RES
1 reset *5:17 19.1604 
2 *5:17 *5:23 7.2 
3 *5:23 *5:27 4.14 
4 *5:27 *5:31 5.49 
5 *5:31 *300:I 4.5 
6 *5:31 *5:38 2.61 
7 *5:38 *875:A1 5.76 
8 *5:38 *325:I 4.5 
9 *5:27 *593:I 9.27 
10 *5:23 *884:EN 10.53 
11 *5:17 *326:I 7.11 
*END

*D_NET *6 0.00588726
*CONN
*P trim[0] I
*I *321:I I *D gf180mcu_fd_sc_mcu7t5v0__antenna
*I *836:D I *D gf180mcu_fd_sc_mcu7t5v0__latrnq_1
*CAP
1 trim[0] 0.000112504
2 *321:I 0.000434565
3 *836:D 0.00037347
4 *6:5 0.00092054
5 *321:I *650:I 5.50507e-05
6 *321:I *842:I 0.000455757
7 *321:I *859:D 2.42119e-05
8 *321:I *271:26 1.91657e-05
9 *321:I *277:10 0
10 *836:D *301:I 0.00017697
11 *836:D *315:I 0.00211599
12 *836:D *322:I 5.53212e-05
13 *836:D *323:I 0.000687279
14 *836:D *27:21 5.42613e-05
15 *836:D *28:13 0.000372615
16 *6:5 *859:D 9.4913e-06
17 *6:5 *17:5 2.00724e-05
*RES
1 trim[0] *6:5 0.945 
2 *6:5 *836:D 25.38 
3 *6:5 *321:I 12.51 
*END

*D_NET *7 0.00488915
*CONN
*P trim[10] I
*I *602:D I *D gf180mcu_fd_sc_mcu7t5v0__latrnq_1
*I *301:I I *D gf180mcu_fd_sc_mcu7t5v0__antenna
*CAP
1 trim[10] 0.000286614
2 *602:D 0
3 *301:I 0.000600263
4 *7:9 0.000886877
5 *301:I *315:I 0.000871896
6 *301:I *322:I 0.000100105
7 *301:I *323:I 2.03496e-05
8 *301:I *763:D 3.58503e-05
9 *301:I *763:E 0.000230969
10 *301:I *859:E 3.46784e-05
11 *301:I *863:D 0.000442423
12 *301:I *10:15 0.000256636
13 *301:I *285:8 0.000567809
14 *7:9 *324:I 6.98495e-05
15 *7:9 *602:E 9.30128e-05
16 *7:9 *611:I 9.30128e-05
17 *7:9 *763:E 3.22348e-05
18 *7:9 *767:D 7.15443e-05
19 *7:9 *8:23 4.85921e-06
20 *7:9 *10:15 5.97457e-06
21 *7:9 *31:17 7.22073e-06
22 *836:D *301:I 0.00017697
*RES
1 trim[10] *7:9 6.795 
2 *7:9 *301:I 12.69 
3 *7:9 *602:D 4.5 
*END

*D_NET *8 0.00712803
*CONN
*P trim[11] I
*I *303:I I *D gf180mcu_fd_sc_mcu7t5v0__antenna
*I *625:D I *D gf180mcu_fd_sc_mcu7t5v0__latrnq_1
*CAP
1 trim[11] 0.00155664
2 *303:I 0.000337201
3 *625:D 0
4 *8:23 0.00189384
5 *303:I *631:I 3.64412e-05
6 *303:I *634:I 0.000246044
7 *303:I *639:A1 0.000252977
8 *303:I *813:D 0
9 *303:I *22:9 1.71254e-05
10 *8:23 *323:I 2.14748e-05
11 *8:23 *813:D 0
12 *8:23 *9:9 2.23086e-05
13 *8:23 *13:13 0.00187409
14 *8:23 *18:11 0.000332537
15 *8:23 *20:5 0
16 *8:23 *21:17 0.000174875
17 *8:23 *22:9 0.000325383
18 *8:23 *31:17 3.22348e-05
19 *7:9 *8:23 4.85921e-06
*RES
1 trim[11] *8:23 34.335 
2 *8:23 *625:D 9 
3 *8:23 *303:I 12.6 
*END

*D_NET *9 0.00691342
*CONN
*P trim[12] I
*I *886:D I *D gf180mcu_fd_sc_mcu7t5v0__latrnq_1
*I *327:I I *D gf180mcu_fd_sc_mcu7t5v0__antenna
*CAP
1 trim[12] 0.0017724
2 *886:D 5.85097e-05
3 *327:I 0.000153308
4 *9:9 0.00198422
5 *327:I *618:I 0.000157882
6 *327:I *886:E 0.000156253
7 *886:D *886:E 2.26729e-05
8 *9:9 *599:EN 0.000664144
9 *9:9 *616:A2 0.00037349
10 *9:9 *618:I 1.90158e-05
11 *9:9 *650:I 4.35142e-05
12 *9:9 *767:D 0
13 *9:9 *770:A1 0.000146911
14 *9:9 *770:A2 0
15 *9:9 *774:I 0
16 *9:9 *775:I 0
17 *9:9 *776:I 0.000346684
18 *9:9 *867:I 0.000102973
19 *9:9 *10:15 1.2398e-05
20 *9:9 *52:14 0.000267503
21 *9:9 *54:16 0.000455766
22 *9:9 *54:36 0.000153464
23 *9:9 *198:8 0
24 *9:9 *198:23 0
25 *9:9 *205:16 0
26 *8:23 *9:9 2.23086e-05
*RES
1 trim[12] *9:9 17.685 
2 *9:9 *327:I 5.85 
3 *9:9 *886:D 5.04 
*END

*D_NET *10 0.0111379
*CONN
*P trim[13] I
*I *840:D I *D gf180mcu_fd_sc_mcu7t5v0__latrnq_1
*I *322:I I *D gf180mcu_fd_sc_mcu7t5v0__antenna
*CAP
1 trim[13] 0.000505632
2 *840:D 0
3 *322:I 0.000743392
4 *10:15 0.00124902
5 *322:I *315:I 0.000384233
6 *322:I *763:D 0.000161479
7 *322:I *836:E 0.000362751
8 *322:I *843:A1 4.18928e-05
9 *322:I *851:I 3.26871e-05
10 *322:I *859:E 0.000836033
11 *322:I *859:RN 0.00029532
12 *322:I *863:D 0.00071369
13 *322:I *873:A2 0.000622581
14 *322:I *13:13 4.29197e-05
15 *322:I *25:17 0.000294159
16 *322:I *53:151 0.000553924
17 *10:15 *323:I 3.22348e-05
18 *10:15 *602:E 4.12631e-05
19 *10:15 *763:D 0.000159362
20 *10:15 *767:D 0.00104782
21 *10:15 *863:D 0.000986964
22 *10:15 *11:9 0.00159143
23 *10:15 *30:29 8.68398e-06
24 *301:I *322:I 0.000100105
25 *301:I *10:15 0.000256636
26 *836:D *322:I 5.53212e-05
27 *7:9 *10:15 5.97457e-06
28 *9:9 *10:15 1.2398e-05
*RES
1 trim[13] *10:15 21.645 
2 *10:15 *322:I 24.39 
3 *10:15 *840:D 4.5 
*END

*D_NET *11 0.0124375
*CONN
*P trim[14] I
*I *324:I I *D gf180mcu_fd_sc_mcu7t5v0__antenna
*I *863:D I *D gf180mcu_fd_sc_mcu7t5v0__latrnq_1
*CAP
1 trim[14] 0.000244829
2 *324:I 0.000934477
3 *863:D 0.000382234
4 *11:9 0.00156154
5 *324:I *597:I 0.000336564
6 *324:I *611:I 0.000161465
7 *324:I *766:A2 0.000492198
8 *324:I *850:A1 1.4382e-06
9 *324:I *30:29 0.000129504
10 *324:I *54:16 1.86887e-06
11 *324:I *197:10 0.000124624
12 *324:I *197:23 0.000482383
13 *863:D *323:I 0.000735032
14 *863:D *763:D 3.60492e-05
15 *863:D *873:A2 0.00050482
16 *863:D *29:5 6.2083e-06
17 *863:D *30:29 9.06517e-05
18 *863:D *285:8 0.000213046
19 *11:9 *323:I 0.00201949
20 *11:9 *767:D 0.000164693
21 *11:9 *12:13 1.00365e-05
22 *301:I *863:D 0.000442423
23 *322:I *863:D 0.00071369
24 *7:9 *324:I 6.98495e-05
25 *10:15 *863:D 0.000986964
26 *10:15 *11:9 0.00159143
*RES
1 trim[14] *11:9 10.575 
2 *11:9 *863:D 21.15 
3 *11:9 *324:I 21.96 
*END

*D_NET *12 0.0105707
*CONN
*P trim[15] I
*I *306:I I *D gf180mcu_fd_sc_mcu7t5v0__antenna
*I *652:D I *D gf180mcu_fd_sc_mcu7t5v0__latrnq_1
*CAP
1 trim[15] 0.00218851
2 *306:I 0
3 *652:D 0.000766689
4 *12:13 0.0029552
5 *652:D *650:I 0
6 *652:D *765:I 0.00023712
7 *652:D *828:I 7.191e-07
8 *652:D *831:I 3.12451e-05
9 *652:D *831:ZN 9.04462e-05
10 *652:D *832:EN 0.000146515
11 *652:D *833:EN 0.000914108
12 *652:D *834:I 4.69392e-05
13 *652:D *835:I 5.78854e-06
14 *652:D *837:I 4.53289e-05
15 *652:D *856:I 7.88453e-05
16 *652:D *30:29 0.000289795
17 *652:D *267:8 1.28932e-05
18 *12:13 *323:I 0
19 *12:13 *597:EN 0
20 *12:13 *599:I 6.33547e-05
21 *12:13 *600:EN 8.32424e-05
22 *12:13 *601:I 0
23 *12:13 *609:A1 5.08425e-05
24 *12:13 *609:A2 0
25 *12:13 *613:I 0.000598952
26 *12:13 *618:I 0
27 *12:13 *764:I 7.46964e-06
28 *12:13 *771:I 0.000468501
29 *12:13 *774:I 0.000356899
30 *12:13 *775:I 2.14748e-05
31 *12:13 *850:A1 0.000194949
32 *12:13 *13:13 2.9519e-06
33 *12:13 *31:17 0
34 *12:13 *35:8 0
35 *12:13 *45:23 0.000825775
36 *12:13 *54:16 5.23429e-06
37 *12:13 *57:17 6.26018e-05
38 *12:13 *197:23 8.3e-06
39 *12:13 *245:12 0
40 *11:9 *12:13 1.00365e-05
*RES
1 trim[15] *12:13 20.115 
2 *12:13 *652:D 20.7 
3 *12:13 *306:I 4.5 
*END

*D_NET *13 0.0204841
*CONN
*P trim[16] I
*I *308:I I *D gf180mcu_fd_sc_mcu7t5v0__antenna
*I *675:D I *D gf180mcu_fd_sc_mcu7t5v0__latrnq_1
*CAP
1 trim[16] 0.00182261
2 *308:I 0.000251367
3 *675:D 4.55532e-05
4 *13:13 0.00211953
5 *308:I *680:I 0
6 *308:I *708:A1 0
7 *308:I *857:EN 0.000129087
8 *308:I *864:I 0.00052094
9 *308:I *53:254 8.68281e-06
10 *308:I *53:258 0.000210938
11 *675:D *708:A1 1.39839e-05
12 *675:D *53:254 1.39839e-05
13 *13:13 *323:I 0.001166
14 *13:13 *652:RN 0.000591253
15 *13:13 *843:A1 0.000433343
16 *13:13 *857:EN 0.000223887
17 *13:13 *864:I 0.00467029
18 *13:13 *866:A1 0.000171937
19 *13:13 *14:17 2.9519e-06
20 *13:13 *24:15 0.000892943
21 *13:13 *25:17 6.84183e-05
22 *13:13 *31:17 0.00292741
23 *13:13 *53:258 0.00227905
24 *322:I *13:13 4.29197e-05
25 *8:23 *13:13 0.00187409
26 *12:13 *13:13 2.9519e-06
*RES
1 trim[16] *13:13 41.445 
2 *13:13 *675:D 9.27 
3 *13:13 *308:I 11.52 
*END

*D_NET *14 0.0120399
*CONN
*P trim[17] I
*I *310:I I *D gf180mcu_fd_sc_mcu7t5v0__antenna
*I *698:D I *D gf180mcu_fd_sc_mcu7t5v0__latrnq_1
*CAP
1 trim[17] 0.00237101
2 *310:I 0
3 *698:D 0.000262024
4 *14:17 0.00263303
5 *698:D *731:A1 0.000210974
6 *698:D *758:I 1.79237e-05
7 *698:D *837:I 1.89025e-05
8 *698:D *56:22 5.30888e-06
9 *14:17 *323:I 7.07694e-05
10 *14:17 *755:I 0
11 *14:17 *756:I 0.000559442
12 *14:17 *758:I 0.000178457
13 *14:17 *760:I 0.000498052
14 *14:17 *800:A1 0.0011001
15 *14:17 *817:I 0.000241656
16 *14:17 *823:A1 0
17 *14:17 *837:I 1.0345e-05
18 *14:17 *874:A1 2.32821e-05
19 *14:17 *874:A2 0.00013092
20 *14:17 *880:I 0.000169515
21 *14:17 *15:27 0.000939995
22 *14:17 *31:17 6.0354e-06
23 *14:17 *53:95 0
24 *14:17 *56:22 1.80179e-05
25 *14:17 *189:8 7.4772e-05
26 *14:17 *245:12 0.00249639
27 *13:13 *14:17 2.9519e-06
*RES
1 trim[17] *14:17 29.475 
2 *14:17 *698:D 15.12 
3 *14:17 *310:I 4.5 
*END

*D_NET *15 0.0117797
*CONN
*P trim[18] I
*I *312:I I *D gf180mcu_fd_sc_mcu7t5v0__antenna
*I *721:D I *D gf180mcu_fd_sc_mcu7t5v0__latrnq_1
*CAP
1 trim[18] 0.00295643
2 *312:I 0
3 *721:D 0.000122334
4 *15:27 0.00307876
5 *721:D *731:A2 0.00020106
6 *721:D *779:I 7.9743e-05
7 *721:D *56:14 0.000216222
8 *721:D *184:8 6.56606e-05
9 *15:27 *603:I 0
10 *15:27 *731:A2 1.18076e-06
11 *15:27 *744:RN 0.00140116
12 *15:27 *754:A2 0.000904334
13 *15:27 *779:I 0.000200623
14 *15:27 *800:A1 1.25778e-05
15 *15:27 *804:EN 0.000105575
16 *15:27 *812:A2 9.58906e-05
17 *15:27 *817:I 0.000262114
18 *15:27 *878:EN 0.000310002
19 *15:27 *889:A2 0
20 *15:27 *16:7 2.4825e-06
21 *15:27 *53:48 0.000106536
22 *15:27 *53:62 0
23 *15:27 *56:20 2.13898e-05
24 *15:27 *297:6 0.000567799
25 *15:27 *297:12 0.000127877
26 *5:17 *721:D 0
27 *14:17 *15:27 0.000939995
*RES
1 trim[18] *15:27 47.205 
2 *15:27 *721:D 6.21 
3 *15:27 *312:I 4.5 
*END

*D_NET *16 0.00737823
*CONN
*P trim[19] I
*I *314:I I *D gf180mcu_fd_sc_mcu7t5v0__antenna
*I *744:D I *D gf180mcu_fd_sc_mcu7t5v0__latrnq_1
*CAP
1 trim[19] 0.0024929
2 *314:I 0.000132577
3 *744:D 0
4 *16:7 0.00262548
5 *314:I *744:E 7.191e-07
6 *314:I *783:I 0
7 *314:I *878:I 6.01893e-05
8 *16:7 *603:I 0.000716461
9 *16:7 *804:I 0.000134472
10 *16:7 *812:A1 5.72287e-05
11 *16:7 *812:A2 6.61516e-06
12 *16:7 *816:A1 0
13 *16:7 *818:I 0.000789362
14 *16:7 *820:I 2.73548e-05
15 *16:7 *878:EN 0
16 *16:7 *879:EN 6.19008e-05
17 *16:7 *879:ZN 4.18375e-05
18 *16:7 *882:I 6.35834e-05
19 *16:7 *889:A2 0.000143583
20 *16:7 *18:11 2.14837e-05
21 *15:27 *16:7 2.4825e-06
*RES
1 trim[19] *16:7 22.185 
2 *16:7 *744:D 4.5 
3 *16:7 *314:I 5.31 
*END

*D_NET *17 0.0117495
*CONN
*P trim[1] I
*I *859:D I *D gf180mcu_fd_sc_mcu7t5v0__latrnq_1
*I *323:I I *D gf180mcu_fd_sc_mcu7t5v0__antenna
*CAP
1 trim[1] 5.93593e-05
2 *859:D 0.000221253
3 *323:I 0.000569166
4 *17:5 0.000849778
5 *323:I *315:I 0.000929342
6 *323:I *613:I 0
7 *323:I *767:D 2.9185e-05
8 *323:I *18:11 0.000858308
9 *323:I *31:17 0.00323898
10 *859:D *842:I 6.84426e-06
11 *859:D *843:A1 3.98088e-05
12 *859:D *859:E 9.85004e-05
13 *859:D *24:15 2.53474e-05
14 *17:5 *24:15 1.72115e-05
15 *301:I *323:I 2.03496e-05
16 *321:I *859:D 2.42119e-05
17 *836:D *323:I 0.000687279
18 *863:D *323:I 0.000735032
19 *6:5 *859:D 9.4913e-06
20 *6:5 *17:5 2.00724e-05
21 *8:23 *323:I 2.14748e-05
22 *10:15 *323:I 3.22348e-05
23 *11:9 *323:I 0.00201949
24 *12:13 *323:I 0
25 *13:13 *323:I 0.001166
26 *14:17 *323:I 7.07694e-05
*RES
1 trim[1] *17:5 0.585 
2 *17:5 *323:I 35.82 
3 *17:5 *859:D 10.62 
*END

*D_NET *18 0.00651949
*CONN
*P trim[20] I
*I *316:I I *D gf180mcu_fd_sc_mcu7t5v0__antenna
*I *767:D I *D gf180mcu_fd_sc_mcu7t5v0__latrnq_1
*CAP
1 trim[20] 0.000352252
2 *316:I 0
3 *767:D 0.000342098
4 *18:11 0.00069435
5 *767:D *302:I 0.000137347
6 *767:D *602:E 0.000172798
7 *767:D *21:17 0.000123069
8 *18:11 *19:13 2.14837e-05
9 *18:11 *21:17 0.00215052
10 *323:I *767:D 2.9185e-05
11 *323:I *18:11 0.000858308
12 *7:9 *767:D 7.15443e-05
13 *8:23 *18:11 0.000332537
14 *9:9 *767:D 0
15 *10:15 *767:D 0.00104782
16 *11:9 *767:D 0.000164693
17 *16:7 *18:11 2.14837e-05
*RES
1 trim[20] *18:11 11.925 
2 *18:11 *767:D 18.54 
3 *18:11 *316:I 4.5 
*END

*D_NET *19 0.00956261
*CONN
*P trim[21] I
*I *790:D I *D gf180mcu_fd_sc_mcu7t5v0__latrnq_1
*I *318:I I *D gf180mcu_fd_sc_mcu7t5v0__antenna
*CAP
1 trim[21] 0.00126961
2 *790:D 3.7396e-05
3 *318:I 0
4 *19:13 0.001307
5 *790:D *631:I 0.000609231
6 *790:D *78:23 2.70125e-05
7 *790:D *78:25 0.00015673
8 *19:13 *621:ZN 3.55431e-05
9 *19:13 *622:I 0.000194959
10 *19:13 *624:I 0.000161479
11 *19:13 *631:I 0.000737018
12 *19:13 *636:I 0.000204743
13 *19:13 *805:EN 0.000121351
14 *19:13 *816:A1 0.000293601
15 *19:13 *820:I 5.44277e-05
16 *19:13 *821:I 0.00374095
17 *19:13 *824:I 2.89427e-06
18 *19:13 *825:I 0.000151176
19 *19:13 *20:5 3.50167e-05
20 *19:13 *53:121 5.20752e-05
21 *19:13 *59:10 0.000127759
22 *19:13 *78:25 0.000103981
23 *19:13 *79:6 8.16641e-05
24 clockp[0] *19:13 3.55118e-05
25 *18:11 *19:13 2.14837e-05
*RES
1 trim[21] *19:13 25.065 
2 *19:13 *318:I 9 
3 *19:13 *790:D 10.53 
*END

*D_NET *20 0.0011614
*CONN
*P trim[22] I
*I *813:D I *D gf180mcu_fd_sc_mcu7t5v0__latrnq_1
*I *320:I I *D gf180mcu_fd_sc_mcu7t5v0__antenna
*CAP
1 trim[22] 0.000155135
2 *813:D 0.000157658
3 *320:I 0
4 *20:5 0.000312793
5 *813:D *811:I 0.000294421
6 *813:D *813:E 0.000106536
7 *813:D *821:I 4.52014e-05
8 *813:D *21:17 1.77876e-05
9 *20:5 *821:I 3.0177e-06
10 *20:5 *21:17 3.3836e-05
11 *303:I *813:D 0
12 *8:23 *813:D 0
13 *8:23 *20:5 0
14 *19:13 *20:5 3.50167e-05
*RES
1 trim[22] *20:5 1.305 
2 *20:5 *320:I 9 
3 *20:5 *813:D 10.62 
*END

*D_NET *21 0.00699266
*CONN
*P trim[23] I
*I *606:D I *D gf180mcu_fd_sc_mcu7t5v0__latrnq_1
*I *302:I I *D gf180mcu_fd_sc_mcu7t5v0__antenna
*CAP
1 trim[23] 0.00121268
2 *606:D 0
3 *302:I 0.000158668
4 *21:17 0.00137135
5 *302:I *602:E 0.000246982
6 *302:I *52:14 7.10237e-05
7 *21:17 *608:I 0.000106324
8 *21:17 *614:I 3.08895e-05
9 *21:17 *809:D 0.000121657
10 *21:17 *811:I 9.65355e-06
11 *21:17 *813:E 7.70237e-05
12 *21:17 *821:I 0.000618913
13 *21:17 *22:9 2.7282e-06
14 *21:17 *31:17 9.04462e-05
15 *21:17 *52:14 0.000106536
16 *21:17 *53:135 7.01651e-05
17 *21:17 *53:141 3.22348e-05
18 *21:17 *53:209 0
19 *21:17 *75:8 2.79586e-05
20 *767:D *302:I 0.000137347
21 *767:D *21:17 0.000123069
22 *813:D *21:17 1.77876e-05
23 *8:23 *21:17 0.000174875
24 *18:11 *21:17 0.00215052
25 *20:5 *21:17 3.3836e-05
*RES
1 trim[23] *21:17 18.135 
2 *21:17 *302:I 6.03 
3 *21:17 *606:D 4.5 
*END

*D_NET *22 0.00368251
*CONN
*P trim[24] I
*I *629:D I *D gf180mcu_fd_sc_mcu7t5v0__latrnq_1
*I *304:I I *D gf180mcu_fd_sc_mcu7t5v0__antenna
*CAP
1 trim[24] 0.000188362
2 *629:D 0
3 *304:I 0.000192301
4 *22:9 0.000380663
5 *304:I *631:I 6.48744e-05
6 *304:I *633:I 0.00100031
7 *304:I *634:I 0.00099774
8 *304:I *807:EN 0.000184544
9 *304:I *67:8 1.0415e-05
10 *22:9 *629:E 0.000147441
11 *22:9 *629:RN 9.3226e-06
12 *22:9 *633:I 1.36965e-05
13 *22:9 *634:I 0.000111296
14 *22:9 *23:15 3.63097e-05
15 *303:I *22:9 1.71254e-05
16 *8:23 *22:9 0.000325383
17 *21:17 *22:9 2.7282e-06
*RES
1 trim[24] *22:9 6.975 
2 *22:9 *304:I 17.46 
3 *22:9 *629:D 4.5 
*END

*D_NET *23 0.00728855
*CONN
*P trim[25] I
*I *328:I I *D gf180mcu_fd_sc_mcu7t5v0__antenna
*I *887:D I *D gf180mcu_fd_sc_mcu7t5v0__latrnq_1
*CAP
1 trim[25] 0.00161864
2 *328:I 0
3 *887:D 8.215e-05
4 *23:15 0.00170079
5 *887:D *618:I 9.60528e-05
6 *887:D *804:I 0.000485906
7 *887:D *816:A1 0.000448049
8 *887:D *53:108 3.73774e-06
9 *887:D *229:8 0
10 *23:15 *618:I 0.000153289
11 *23:15 *621:EN 4.39705e-05
12 *23:15 *621:I 0.00053263
13 *23:15 *622:EN 7.20334e-05
14 *23:15 *622:I 0
15 *23:15 *623:EN 0.000142874
16 *23:15 *626:I 0.000192743
17 *23:15 *632:A1 0.000311669
18 *23:15 *632:A2 0
19 *23:15 *633:I 0.000596699
20 *23:15 *638:I 0.000123905
21 *23:15 *639:A2 7.84312e-05
22 *23:15 *805:ZN 1.74796e-05
23 *23:15 *822:I 0.000281025
24 *23:15 *67:23 6.8611e-05
25 *23:15 *76:27 3.23149e-05
26 *23:15 *229:8 7.191e-07
27 clockp[0] *23:15 0.000168523
28 *22:9 *23:15 3.63097e-05
*RES
1 trim[25] *23:15 20.025 
2 *23:15 *887:D 15.21 
3 *23:15 *328:I 4.5 
*END

*D_NET *24 0.00782788
*CONN
*P trim[2] I
*I *648:D I *D gf180mcu_fd_sc_mcu7t5v0__latrnq_1
*I *305:I I *D gf180mcu_fd_sc_mcu7t5v0__antenna
*CAP
1 trim[2] 0.00105821
2 *648:D 9.43417e-05
3 *305:I 0.000276737
4 *24:15 0.00142929
5 *305:I *646:EN 1.33034e-05
6 *305:I *649:I 2.09276e-06
7 *305:I *651:A2 9.45473e-05
8 *305:I *654:I 7.55765e-06
9 *305:I *91:10 0.000278766
10 *648:D *649:I 1.43641e-05
11 *648:D *91:10 0.000265813
12 *24:15 *656:I 0.00015651
13 *24:15 *855:ZN 0.000394113
14 *24:15 *857:EN 0.00124164
15 *24:15 *860:I 0.000507554
16 *24:15 *25:17 4.6321e-06
17 *24:15 *90:27 0.000769673
18 *24:15 *277:10 0.000283225
19 *859:D *24:15 2.53474e-05
20 *13:13 *24:15 0.000892943
21 *17:5 *24:15 1.72115e-05
*RES
1 trim[2] *24:15 17.325 
2 *24:15 *305:I 6.48 
3 *24:15 *648:D 5.31 
*END

*D_NET *25 0.0101482
*CONN
*P trim[3] I
*I *307:I I *D gf180mcu_fd_sc_mcu7t5v0__antenna
*I *671:D I *D gf180mcu_fd_sc_mcu7t5v0__latrnq_1
*CAP
1 trim[3] 0.0013329
2 *307:I 0.000477672
3 *671:D 0.000267419
4 *25:17 0.00207799
5 *307:I *662:A2 0.000195749
6 *307:I *685:A1 5.23429e-06
7 *307:I *98:10 0.000467288
8 *307:I *101:34 0.000284768
9 *671:D *671:E 0.000440217
10 *671:D *685:A2 4.7572e-05
11 *671:D *708:A1 1.20058e-05
12 *671:D *864:I 0.000178725
13 *671:D *26:13 0.000154581
14 *671:D *98:10 2.70026e-05
15 *25:17 *660:I 0.00120609
16 *25:17 *839:A2 0.000596667
17 *25:17 *843:A1 0.000328366
18 *25:17 *864:I 0.000210652
19 *25:17 *26:13 0.00141109
20 *25:17 *98:10 5.90118e-05
21 *322:I *25:17 0.000294159
22 *13:13 *25:17 6.84183e-05
23 *24:15 *25:17 4.6321e-06
*RES
1 trim[3] *25:17 23.625 
2 *25:17 *671:D 12.33 
3 *25:17 *307:I 13.14 
*END

*D_NET *26 0.0107302
*CONN
*P trim[4] I
*I *309:I I *D gf180mcu_fd_sc_mcu7t5v0__antenna
*I *694:D I *D gf180mcu_fd_sc_mcu7t5v0__latrnq_1
*CAP
1 trim[4] 0.00159431
2 *309:I 0
3 *694:D 0.000103688
4 *26:13 0.001698
5 *694:D *675:E 0
6 *694:D *694:RN 9.04462e-05
7 *694:D *708:A1 3.12451e-05
8 *694:D *27:21 0.000547557
9 *694:D *272:18 0.000555265
10 *26:13 *315:I 2.08284e-05
11 *26:13 *685:A2 0.000354587
12 *26:13 *708:A1 1.11764e-05
13 *26:13 *839:A1 0.00343773
14 *26:13 *839:A2 0.00050293
15 *26:13 *27:21 0.000105927
16 *26:13 *99:20 1.40829e-05
17 *26:13 *272:18 9.6737e-05
18 *671:D *26:13 0.000154581
19 *25:17 *26:13 0.00141109
*RES
1 trim[4] *26:13 22.095 
2 *26:13 *694:D 15.57 
3 *26:13 *309:I 4.5 
*END

*D_NET *27 0.0147296
*CONN
*P trim[5] I
*I *311:I I *D gf180mcu_fd_sc_mcu7t5v0__antenna
*I *717:D I *D gf180mcu_fd_sc_mcu7t5v0__latrnq_1
*CAP
1 trim[5] 0.00274443
2 *311:I 0.000437002
3 *717:D 0
4 *27:21 0.00318143
5 *311:I *714:EN 0.000106536
6 *311:I *717:E 0.000142047
7 *311:I *717:RN 9.07674e-05
8 *311:I *721:E 0
9 *311:I *728:I 0
10 *311:I *731:A2 0.000145056
11 *311:I *800:A1 1.61174e-05
12 *311:I *156:19 0
13 *27:21 *315:I 0.000164228
14 *27:21 *662:A1 0.000471642
15 *27:21 *689:EN 0
16 *27:21 *695:I 4.25098e-05
17 *27:21 *696:I 0
18 *27:21 *697:A1 1.51153e-05
19 *27:21 *699:I 0.000226494
20 *27:21 *700:I 3.34104e-05
21 *27:21 *701:A1 4.7492e-05
22 *27:21 *706:I 8.43798e-05
23 *27:21 *707:I 0.00013531
24 *27:21 *714:EN 0.000630129
25 *27:21 *717:E 0.000106536
26 *27:21 *726:I 1.71707e-05
27 *27:21 *829:I 0.000692382
28 *27:21 *830:I 0.000744717
29 *27:21 *831:EN 0.000534709
30 *27:21 *831:I 0.000518361
31 *27:21 *831:ZN 0.000510653
32 *27:21 *839:A1 9.08505e-05
33 *27:21 *855:I 0
34 *27:21 *28:13 0.000150623
35 *27:21 *56:14 0
36 *27:21 *123:10 0.000144358
37 *27:21 *134:8 8.61061e-05
38 *27:21 *134:19 1.56674e-05
39 *27:21 *257:12 0.00011604
40 *27:21 *272:18 0.00157958
41 *694:D *27:21 0.000547557
42 *836:D *27:21 5.42613e-05
43 *26:13 *27:21 0.000105927
*RES
1 trim[5] *27:21 32.535 
2 *27:21 *717:D 4.5 
3 *27:21 *311:I 8.28 
*END

*D_NET *28 0.0171008
*CONN
*P trim[6] I
*I *740:D I *D gf180mcu_fd_sc_mcu7t5v0__latrnq_1
*I *313:I I *D gf180mcu_fd_sc_mcu7t5v0__antenna
*CAP
1 trim[6] 0.00161663
2 *740:D 2.77773e-05
3 *313:I 0.000268356
4 *28:13 0.00191276
5 *313:I *754:A2 1.77911e-05
6 *313:I *838:I 8.93715e-05
7 *313:I *874:A1 5.74621e-06
8 *313:I *185:24 0
9 *740:D *754:A2 1.07374e-05
10 *28:13 *662:A1 5.34388e-05
11 *28:13 *694:RN 0.00102906
12 *28:13 *754:A1 0.000602608
13 *28:13 *754:A2 0.000213046
14 *28:13 *763:D 3.17993e-05
15 *28:13 *779:I 7.55765e-06
16 *28:13 *832:EN 0.000143313
17 *28:13 *838:I 0.00057175
18 *28:13 *839:A1 0.00236813
19 *28:13 *841:I 0.000388581
20 *28:13 *843:A2 6.90528e-05
21 *28:13 *850:A2 5.44299e-06
22 *28:13 *855:I 0.003825
23 *28:13 *29:5 1.57618e-05
24 *28:13 *53:16 0.00114473
25 *28:13 *123:10 0.000883846
26 *28:13 *257:12 0.00106186
27 *28:13 *265:10 0
28 *836:D *28:13 0.000372615
29 *884:EN *313:I 0.000207479
30 *884:EN *740:D 5.97457e-06
31 *27:21 *28:13 0.000150623
*RES
1 trim[6] *28:13 31.455 
2 *28:13 *313:I 6.93 
3 *28:13 *740:D 4.77 
*END

*D_NET *29 0.00681098
*CONN
*P trim[7] I
*I *763:D I *D gf180mcu_fd_sc_mcu7t5v0__latrnq_1
*I *315:I I *D gf180mcu_fd_sc_mcu7t5v0__antenna
*CAP
1 trim[7] 0.000121556
2 *763:D 0.000241259
3 *315:I 0.000367958
4 *29:5 0.000730774
5 *763:D *763:E 9.85004e-05
6 *763:D *836:E 9.85004e-05
7 *763:D *840:E 0.000142047
8 *763:D *30:29 2.36152e-06
9 *763:D *53:147 6.0415e-05
10 *29:5 *30:29 1.4581e-05
11 *301:I *315:I 0.000871896
12 *301:I *763:D 3.58503e-05
13 *322:I *315:I 0.000384233
14 *322:I *763:D 0.000161479
15 *323:I *315:I 0.000929342
16 *836:D *315:I 0.00211599
17 *863:D *763:D 3.60492e-05
18 *863:D *29:5 6.2083e-06
19 *10:15 *763:D 0.000159362
20 *26:13 *315:I 2.08284e-05
21 *27:21 *315:I 0.000164228
22 *28:13 *763:D 3.17993e-05
23 *28:13 *29:5 1.57618e-05
*RES
1 trim[7] *29:5 0.765 
2 *29:5 *315:I 26.01 
3 *29:5 *763:D 11.7 
*END

*D_NET *30 0.0127703
*CONN
*P trim[8] I
*I *786:D I *D gf180mcu_fd_sc_mcu7t5v0__latrnq_1
*I *317:I I *D gf180mcu_fd_sc_mcu7t5v0__antenna
*CAP
1 trim[8] 0.00323057
2 *786:D 5.28418e-05
3 *317:I 3.44897e-05
4 *30:29 0.0033179
5 *317:I *881:EN 0
6 *786:D *628:A1 0.000146222
7 *786:D *814:I 6.1578e-05
8 *30:29 *649:I 0.000267531
9 *30:29 *757:I 0.00050482
10 *30:29 *758:EN 0.000151427
11 *30:29 *761:EN 2.86475e-05
12 *30:29 *765:I 0.000482706
13 *30:29 *766:A2 6.12653e-05
14 *30:29 *773:I 0
15 *30:29 *786:E 6.62654e-05
16 *30:29 *800:A2 1.03692e-05
17 *30:29 *821:I 0
18 *30:29 *824:I 0
19 *30:29 *837:I 0
20 *30:29 *879:EN 0.000129173
21 *30:29 *880:EN 1.07374e-05
22 *30:29 *881:EN 0.000362773
23 *30:29 *888:I 2.38983e-05
24 *30:29 *31:17 1.00851e-05
25 *30:29 *53:82 0
26 *30:29 *53:231 0.000179533
27 *30:29 *101:14 0.00174591
28 *30:29 *101:34 0.000303036
29 *30:29 *197:10 8.67445e-05
30 *30:29 *265:10 0.000220467
31 *324:I *30:29 0.000129504
32 *593:I *30:29 0
33 *652:D *30:29 0.000289795
34 *763:D *30:29 2.36152e-06
35 *863:D *30:29 9.06517e-05
36 *875:A1 *30:29 0.000354738
37 *5:38 *30:29 0.000391005
38 *10:15 *30:29 8.68398e-06
39 *29:5 *30:29 1.4581e-05
*RES
1 trim[8] *30:29 34.695 
2 *30:29 *317:I 4.77 
3 *30:29 *786:D 14.31 
*END

*D_NET *31 0.00758895
*CONN
*P trim[9] I
*I *809:D I *D gf180mcu_fd_sc_mcu7t5v0__latrnq_1
*I *319:I I *D gf180mcu_fd_sc_mcu7t5v0__antenna
*CAP
1 trim[9] 0.00027042
2 *809:D 0.000248443
3 *319:I 0
4 *31:17 0.000518863
5 *809:D *608:I 2.32439e-05
6 *809:D *614:I 0
7 *809:D *813:E 2.14748e-05
8 *809:D *245:12 7.09972e-05
9 *31:17 *608:I 1.4382e-06
10 *323:I *31:17 0.00323898
11 *7:9 *31:17 7.22073e-06
12 *8:23 *31:17 3.22348e-05
13 *12:13 *31:17 0
14 *13:13 *31:17 0.00292741
15 *14:17 *31:17 6.0354e-06
16 *21:17 *809:D 0.000121657
17 *21:17 *31:17 9.04462e-05
18 *30:29 *31:17 1.00851e-05
*RES
1 trim[9] *31:17 22.815 
2 *31:17 *319:I 4.5 
3 *31:17 *809:D 6.75 
*END

*D_NET *32 0.000925726
*CONN
*I *825:I I *D gf180mcu_fd_sc_mcu7t5v0__clkinv_8
*I *824:ZN O *D gf180mcu_fd_sc_mcu7t5v0__clkinv_2
*CAP
1 *825:I 0.000248876
2 *824:ZN 0.000248876
3 *825:I *624:I 3.98088e-05
4 *825:I *821:I 0.000116925
5 *825:I *59:10 0.000120064
6 *19:13 *825:I 0.000151176
*RES
1 *824:ZN *825:I 11.25 
*END

*D_NET *33 0.000691683
*CONN
*I *827:I I *D gf180mcu_fd_sc_mcu7t5v0__clkinv_8
*I *826:ZN O *D gf180mcu_fd_sc_mcu7t5v0__clkinv_2
*CAP
1 *827:I 0.000123102
2 *826:ZN 0.000123102
3 *827:I *780:I 5.9617e-05
4 *827:I *826:I 1.23715e-05
5 clockp[1] *827:I 0.00037349
*RES
1 *826:ZN *827:I 10.44 
*END

*D_NET *34 0.00185389
*CONN
*I *598:I I *D gf180mcu_fd_sc_mcu7t5v0__invz_2
*I *596:Z O *D gf180mcu_fd_sc_mcu7t5v0__clkbuf_1
*CAP
1 *598:I 0.000194877
2 *596:Z 0.000194877
3 *598:I *598:ZN 0.000475271
4 *598:I *599:I 9.84908e-05
5 *598:I *600:I 2.54578e-05
6 *598:I *603:I 0
7 *598:I *57:17 0.000864921
*RES
1 *596:Z *598:I 11.88 
*END

*D_NET *35 0.00311308
*CONN
*I *598:ZN O *D gf180mcu_fd_sc_mcu7t5v0__invz_2
*I *601:I I *D gf180mcu_fd_sc_mcu7t5v0__clkinv_2
*I *600:ZN O *D gf180mcu_fd_sc_mcu7t5v0__invz_4
*CAP
1 *598:ZN 6.24973e-05
2 *601:I 0.000579793
3 *600:ZN 0.000258996
4 *35:8 0.000901286
5 *598:ZN *600:I 0.000346825
6 *598:ZN *603:I 7.71821e-06
7 *601:I *600:EN 7.772e-05
8 *601:I *603:I 7.57087e-05
9 *601:I *604:I 4.33855e-05
10 *601:I *609:A2 6.58085e-05
11 *601:I *867:I 9.09867e-05
12 *601:I *45:23 3.87145e-05
13 *601:I *52:14 5.32058e-05
14 *35:8 *52:14 3.51672e-05
15 *598:I *598:ZN 0.000475271
16 *12:13 *601:I 0
17 *12:13 *35:8 0
*RES
1 *600:ZN *35:8 10.35 
2 *35:8 *601:I 13.14 
3 *35:8 *598:ZN 10.35 
*END

*D_NET *36 0.00326514
*CONN
*I *597:I I *D gf180mcu_fd_sc_mcu7t5v0__invz_2
*I *601:ZN O *D gf180mcu_fd_sc_mcu7t5v0__clkinv_2
*CAP
1 *597:I 0.000600514
2 *601:ZN 0.000600514
3 *597:I *603:I 0
4 *597:I *605:A1 0.000187125
5 *597:I *611:I 0.000204168
6 *597:I *766:A2 0.000226832
7 *597:I *772:I 0.000171937
8 *597:I *867:I 0.000377739
9 *597:I *44:15 0
10 *597:I *197:23 0.000474665
11 *597:I *205:16 8.50796e-05
12 *324:I *597:I 0.000336564
*RES
1 *601:ZN *597:I 24.48 
*END

*D_NET *37 0.00186184
*CONN
*I *801:I I *D gf180mcu_fd_sc_mcu7t5v0__clkbuf_2
*I *889:A1 I *D gf180mcu_fd_sc_mcu7t5v0__xor2_1
*I *804:ZN O *D gf180mcu_fd_sc_mcu7t5v0__invz_2
*I *595:I I *D gf180mcu_fd_sc_mcu7t5v0__clkbuf_2
*I *806:ZN O *D gf180mcu_fd_sc_mcu7t5v0__invz_8
*CAP
1 *801:I 0.000111961
2 *889:A1 0.000170665
3 *804:ZN 3.54177e-05
4 *595:I 0.000272837
5 *806:ZN 0.000308255
6 *37:30 0.000282626
7 *595:I *618:I 8.72457e-05
8 *595:I *57:17 0
9 *801:I *53:108 4.78286e-05
10 *804:ZN *886:E 0.000223407
11 *889:A1 *804:I 0.00022444
12 *889:A1 *886:E 9.71964e-06
13 *889:A1 *53:108 8.7437e-05
*RES
1 *806:ZN *595:I 10.98 
2 *806:ZN *804:ZN 9.63 
3 *806:ZN *37:30 4.5 
4 *37:30 *889:A1 6.75 
5 *37:30 *801:I 5.58 
*END

*D_NET *38 0.00262403
*CONN
*I *605:A1 I *D gf180mcu_fd_sc_mcu7t5v0__or2_2
*I *604:Z O *D gf180mcu_fd_sc_mcu7t5v0__clkbuf_1
*CAP
1 *605:A1 0.00088369
2 *604:Z 0.00088369
3 *605:A1 *603:I 0
4 *605:A1 *843:A1 1.79733e-05
5 *605:A1 *847:I 4.44038e-05
6 *605:A1 *855:EN 1.61174e-05
7 *605:A1 *867:I 0.000424719
8 *605:A1 *44:8 4.16172e-05
9 *605:A1 *44:15 0.000100921
10 *605:A1 *258:10 2.37695e-05
11 *597:I *605:A1 0.000187125
*RES
1 *604:Z *605:A1 16.29 
*END

*D_NET *39 0.000175879
*CONN
*I *609:A1 I *D gf180mcu_fd_sc_mcu7t5v0__or2_2
*I *608:Z O *D gf180mcu_fd_sc_mcu7t5v0__clkbuf_1
*CAP
1 *609:A1 6.2518e-05
2 *608:Z 6.2518e-05
3 *609:A1 *52:14 0
4 *12:13 *609:A1 5.08425e-05
*RES
1 *608:Z *609:A1 18.63 
*END

*D_NET *40 0.000398225
*CONN
*I *597:EN I *D gf180mcu_fd_sc_mcu7t5v0__invz_2
*I *605:Z O *D gf180mcu_fd_sc_mcu7t5v0__or2_2
*CAP
1 *597:EN 0.000167242
2 *605:Z 0.000167242
3 *597:EN *44:8 1.56862e-05
4 *597:EN *44:15 4.80547e-05
5 *12:13 *597:EN 0
*RES
1 *605:Z *597:EN 9.99 
*END

*D_NET *41 0.000646312
*CONN
*I *598:EN I *D gf180mcu_fd_sc_mcu7t5v0__invz_2
*I *609:Z O *D gf180mcu_fd_sc_mcu7t5v0__or2_2
*CAP
1 *598:EN 0.000171048
2 *609:Z 0.000171048
3 *598:EN *600:EN 0.000223398
4 *598:EN *603:I 0
5 *598:EN *604:I 6.96183e-05
6 *598:EN *45:23 1.11996e-05
*RES
1 *609:Z *598:EN 10.44 
*END

*D_NET *42 0.00817257
*CONN
*I *604:I I *D gf180mcu_fd_sc_mcu7t5v0__clkbuf_1
*I *603:Z O *D gf180mcu_fd_sc_mcu7t5v0__clkbuf_1
*CAP
1 *604:I 0.00136488
2 *603:Z 0.00136488
3 *604:I *599:EN 9.84908e-05
4 *604:I *600:EN 0.000365445
5 *604:I *603:I 0
6 *604:I *609:A2 0.000223407
7 *604:I *807:EN 8.68281e-06
8 *604:I *810:I 0
9 *604:I *817:I 2.36914e-05
10 *604:I *818:I 0.000874894
11 *604:I *841:I 0.000559764
12 *604:I *867:I 0.000816844
13 *604:I *873:A1 0.00235859
14 *604:I *45:23 0
15 *598:EN *604:I 6.96183e-05
16 *601:I *604:I 4.33855e-05
*RES
1 *603:Z *604:I 25.38 
*END

*D_NET *43 0.0015841
*CONN
*I *608:I I *D gf180mcu_fd_sc_mcu7t5v0__clkbuf_1
*I *607:Z O *D gf180mcu_fd_sc_mcu7t5v0__clkbuf_1
*CAP
1 *608:I 0.000248466
2 *607:Z 0.000248466
3 *608:I *614:I 2.65444e-06
4 *608:I *53:135 0.000920709
5 *608:I *53:141 2.65444e-06
6 *608:I *245:12 3.01487e-05
7 *809:D *608:I 2.32439e-05
8 *21:17 *608:I 0.000106324
9 *31:17 *608:I 1.4382e-06
*RES
1 *607:Z *608:I 12.06 
*END

*D_NET *44 0.00604614
*CONN
*I *605:A2 I *D gf180mcu_fd_sc_mcu7t5v0__or2_2
*I *603:I I *D gf180mcu_fd_sc_mcu7t5v0__clkbuf_1
*I *610:I I *D gf180mcu_fd_sc_mcu7t5v0__inv_1
*I *602:Q O *D gf180mcu_fd_sc_mcu7t5v0__latrnq_1
*CAP
1 *605:A2 3.65347e-05
2 *603:I 0.00122018
3 *610:I 0
4 *602:Q 0.000128661
5 *44:15 0.00145059
6 *44:8 0.000322535
7 *603:I *599:I 9.40498e-06
8 *603:I *600:I 8.14624e-05
9 *603:I *806:I 0.000184454
10 *603:I *810:I 0.00035741
11 *603:I *812:A1 0.00048874
12 *603:I *812:A2 9.0531e-06
13 *603:I *867:I 0
14 *603:I *45:23 0.000744968
15 *44:8 *197:23 5.97457e-06
16 *597:EN *44:8 1.56862e-05
17 *597:EN *44:15 4.80547e-05
18 *597:I *603:I 0
19 *597:I *44:15 0
20 *598:EN *603:I 0
21 *598:I *603:I 0
22 *598:ZN *603:I 7.71821e-06
23 *601:I *603:I 7.57087e-05
24 *604:I *603:I 0
25 *605:A1 *603:I 0
26 *605:A1 *44:8 4.16172e-05
27 *605:A1 *44:15 0.000100921
28 *15:27 *603:I 0
29 *16:7 *603:I 0.000716461
*RES
1 *602:Q *44:8 5.58 
2 *44:8 *610:I 4.5 
3 *44:8 *44:15 1.53 
4 *44:15 *603:I 24.48 
5 *44:15 *605:A2 4.77 
*END

*D_NET *45 0.00547322
*CONN
*I *607:I I *D gf180mcu_fd_sc_mcu7t5v0__clkbuf_1
*I *613:I I *D gf180mcu_fd_sc_mcu7t5v0__inv_1
*I *609:A2 I *D gf180mcu_fd_sc_mcu7t5v0__or2_2
*I *606:Q O *D gf180mcu_fd_sc_mcu7t5v0__latrnq_1
*CAP
1 *607:I 0.000124337
2 *613:I 0.000149921
3 *609:A2 0.000120888
4 *606:Q 0
5 *45:23 0.000745667
6 *45:4 0.000592298
7 *607:I *806:EN 3.01487e-05
8 *607:I *873:A1 0.000436469
9 *607:I *53:135 0.000176088
10 *609:A2 *600:EN 5.28408e-05
11 *609:A2 *873:A1 0.000231442
12 *609:A2 *52:14 0.000304291
13 *613:I *806:EN 0
14 *613:I *245:12 0
15 *45:23 *600:EN 0
16 *45:23 *806:EN 0
17 *45:23 *245:12 0
18 *323:I *613:I 0
19 *598:EN *45:23 1.11996e-05
20 *601:I *609:A2 6.58085e-05
21 *601:I *45:23 3.87145e-05
22 *603:I *45:23 0.000744968
23 *604:I *609:A2 0.000223407
24 *604:I *45:23 0
25 *12:13 *609:A2 0
26 *12:13 *613:I 0.000598952
27 *12:13 *45:23 0.000825775
*RES
1 *606:Q *45:4 4.5 
2 *45:4 *609:A2 15.84 
3 *45:4 *45:23 8.82 
4 *45:23 *613:I 10.53 
5 *45:23 *607:I 10.62 
*END

*D_NET *46 0.0026526
*CONN
*I *611:I I *D gf180mcu_fd_sc_mcu7t5v0__clkbuf_1
*I *610:ZN O *D gf180mcu_fd_sc_mcu7t5v0__inv_1
*CAP
1 *611:I 0.00040327
2 *610:ZN 0.00040327
3 *611:I *602:E 0.000312651
4 *611:I *763:E 0.000223407
5 *611:I *53:141 0.000444513
6 *611:I *53:143 8.05869e-05
7 *611:I *205:16 0.00032625
8 *324:I *611:I 0.000161465
9 *597:I *611:I 0.000204168
10 *7:9 *611:I 9.30128e-05
*RES
1 *610:ZN *611:I 23.58 
*END

*D_NET *47 0.000202847
*CONN
*I *614:I I *D gf180mcu_fd_sc_mcu7t5v0__clkbuf_1
*I *613:ZN O *D gf180mcu_fd_sc_mcu7t5v0__inv_1
*CAP
1 *614:I 8.46516e-05
2 *613:ZN 8.46516e-05
3 *608:I *614:I 2.65444e-06
4 *809:D *614:I 0
5 *21:17 *614:I 3.08895e-05
*RES
1 *613:ZN *614:I 9.63 
*END

*D_NET *48 0.000160952
*CONN
*I *612:I I *D gf180mcu_fd_sc_mcu7t5v0__clkbuf_1
*I *611:Z O *D gf180mcu_fd_sc_mcu7t5v0__clkbuf_1
*CAP
1 *612:I 8.0476e-05
2 *611:Z 8.0476e-05
3 *612:I *53:141 0
*RES
1 *611:Z *612:I 9.63 
*END

*D_NET *49 0.000219732
*CONN
*I *615:I I *D gf180mcu_fd_sc_mcu7t5v0__clkbuf_1
*I *614:Z O *D gf180mcu_fd_sc_mcu7t5v0__clkbuf_1
*CAP
1 *615:I 8.1274e-05
2 *614:Z 8.1274e-05
3 *615:I *873:A1 5.10066e-05
4 *615:I *53:135 6.17789e-06
*RES
1 *614:Z *615:I 9.63 
*END

*D_NET *50 0.00110365
*CONN
*I *599:EN I *D gf180mcu_fd_sc_mcu7t5v0__invz_8
*I *612:Z O *D gf180mcu_fd_sc_mcu7t5v0__clkbuf_1
*CAP
1 *599:EN 0.000154883
2 *612:Z 0.000154883
3 *599:EN *867:I 3.12451e-05
4 *599:EN *198:8 0
5 *599:EN *205:16 0
6 *604:I *599:EN 9.84908e-05
7 *9:9 *599:EN 0.000664144
*RES
1 *612:Z *599:EN 19.98 
*END

*D_NET *51 0.0010405
*CONN
*I *600:EN I *D gf180mcu_fd_sc_mcu7t5v0__invz_4
*I *615:Z O *D gf180mcu_fd_sc_mcu7t5v0__clkbuf_1
*CAP
1 *600:EN 0.000118925
2 *615:Z 0.000118925
3 *598:EN *600:EN 0.000223398
4 *601:I *600:EN 7.772e-05
5 *604:I *600:EN 0.000365445
6 *609:A2 *600:EN 5.28408e-05
7 *12:13 *600:EN 8.32424e-05
8 *45:23 *600:EN 0
*RES
1 *615:Z *600:EN 20.16 
*END

*D_NET *52 0.00595625
*CONN
*I *606:E I *D gf180mcu_fd_sc_mcu7t5v0__latrnq_1
*I *602:E I *D gf180mcu_fd_sc_mcu7t5v0__latrnq_1
*I *616:Z O *D gf180mcu_fd_sc_mcu7t5v0__xor2_1
*CAP
1 *606:E 0
2 *602:E 0.000259008
3 *616:Z 0.00105041
4 *52:14 0.00130942
5 *602:E *53:141 0.000262833
6 *52:14 *618:I 0.00038057
7 *52:14 *770:A1 0.000143583
8 *52:14 *867:I 0.000591262
9 *52:14 *53:141 0.000169515
10 *52:14 *54:16 5.50633e-05
11 *52:14 *54:36 3.01487e-05
12 *302:I *602:E 0.000246982
13 *302:I *52:14 7.10237e-05
14 *601:I *52:14 5.32058e-05
15 *609:A1 *52:14 0
16 *609:A2 *52:14 0.000304291
17 *611:I *602:E 0.000312651
18 *767:D *602:E 0.000172798
19 *7:9 *602:E 9.30128e-05
20 *9:9 *52:14 0.000267503
21 *10:15 *602:E 4.12631e-05
22 *21:17 *52:14 0.000106536
23 *35:8 *52:14 3.51672e-05
*RES
1 *616:Z *52:14 22.95 
2 *52:14 *602:E 8.37 
3 *52:14 *606:E 4.5 
*END

*D_NET *53 0.0552515
*CONN
*I *671:RN I *D gf180mcu_fd_sc_mcu7t5v0__latrnq_1
*I *675:RN I *D gf180mcu_fd_sc_mcu7t5v0__latrnq_1
*I *648:RN I *D gf180mcu_fd_sc_mcu7t5v0__latrnq_1
*I *652:RN I *D gf180mcu_fd_sc_mcu7t5v0__latrnq_1
*I *790:RN I *D gf180mcu_fd_sc_mcu7t5v0__latrnq_1
*I *786:RN I *D gf180mcu_fd_sc_mcu7t5v0__latrnq_1
*I *629:RN I *D gf180mcu_fd_sc_mcu7t5v0__latrnq_1
*I *625:RN I *D gf180mcu_fd_sc_mcu7t5v0__latrnq_1
*I *813:RN I *D gf180mcu_fd_sc_mcu7t5v0__latrnq_1
*I *809:RN I *D gf180mcu_fd_sc_mcu7t5v0__latrnq_1
*I *606:RN I *D gf180mcu_fd_sc_mcu7t5v0__latrnq_1
*I *767:RN I *D gf180mcu_fd_sc_mcu7t5v0__latrnq_1
*I *602:RN I *D gf180mcu_fd_sc_mcu7t5v0__latrnq_1
*I *763:RN I *D gf180mcu_fd_sc_mcu7t5v0__latrnq_1
*I *840:RN I *D gf180mcu_fd_sc_mcu7t5v0__latrnq_1
*I *836:RN I *D gf180mcu_fd_sc_mcu7t5v0__latrnq_1
*I *863:RN I *D gf180mcu_fd_sc_mcu7t5v0__latrnq_1
*I *859:RN I *D gf180mcu_fd_sc_mcu7t5v0__latrnq_1
*I *887:RN I *D gf180mcu_fd_sc_mcu7t5v0__latrnq_1
*I *886:RN I *D gf180mcu_fd_sc_mcu7t5v0__latrnq_1
*I *883:I I *D gf180mcu_fd_sc_mcu7t5v0__dlyb_1
*I *717:RN I *D gf180mcu_fd_sc_mcu7t5v0__latrnq_1
*I *721:RN I *D gf180mcu_fd_sc_mcu7t5v0__latrnq_1
*I *744:RN I *D gf180mcu_fd_sc_mcu7t5v0__latrnq_1
*I *740:RN I *D gf180mcu_fd_sc_mcu7t5v0__latrnq_1
*I *698:RN I *D gf180mcu_fd_sc_mcu7t5v0__latrnq_1
*I *694:RN I *D gf180mcu_fd_sc_mcu7t5v0__latrnq_1
*I *593:ZN O *D gf180mcu_fd_sc_mcu7t5v0__clkinv_1
*CAP
1 *671:RN 3.16536e-05
2 *675:RN 0
3 *648:RN 0
4 *652:RN 0.00012749
5 *790:RN 6.29168e-05
6 *786:RN 0
7 *629:RN 0.000146503
8 *625:RN 0
9 *813:RN 1.89439e-05
10 *809:RN 0
11 *606:RN 0
12 *767:RN 0
13 *602:RN 0
14 *763:RN 0
15 *840:RN 0
16 *836:RN 0
17 *863:RN 0
18 *859:RN 0.000145292
19 *887:RN 2.87414e-05
20 *886:RN 0
21 *883:I 0
22 *717:RN 0.000359066
23 *721:RN 0
24 *744:RN 0.000188695
25 *740:RN 0
26 *698:RN 0.000149115
27 *694:RN 0.000334711
28 *593:ZN 0
29 *53:258 0.000243914
30 *53:254 0.000387746
31 *53:252 0.000423154
32 *53:231 0.000880101
33 *53:209 0.000224641
34 *53:200 9.70814e-05
35 *53:151 0.000265957
36 *53:149 0.000134887
37 *53:147 6.20429e-05
38 *53:145 7.09159e-05
39 *53:143 0.000130754
40 *53:141 0.000378533
41 *53:135 0.000610009
42 *53:129 0.00101704
43 *53:121 0.00114387
44 *53:108 0.00126217
45 *53:95 0.00113238
46 *53:89 0.00123911
47 *53:82 0.000234342
48 *53:62 0.000567895
49 *53:48 0.000633167
50 *53:38 0.000827364
51 *53:16 0.000483257
52 *53:10 0.000941488
53 *53:4 0.000825136
54 *629:RN *629:E 8.69474e-05
55 *629:RN *634:I 1.56942e-05
56 *629:RN *873:A1 0.000243311
57 *629:RN *75:8 8.53098e-05
58 *652:RN *650:I 4.06178e-05
59 *652:RN *652:E 0.000283695
60 *652:RN *856:I 0.000606654
61 *652:RN *857:EN 0.000598952
62 *671:RN *685:A2 0.000519973
63 *671:RN *839:A1 0.000381917
64 *671:RN *853:I 2.75886e-05
65 *694:RN *708:A1 3.62279e-05
66 *694:RN *754:A1 0.000111656
67 *694:RN *777:A1 0.000567799
68 *694:RN *839:A1 0.000391052
69 *694:RN *143:16 3.22348e-05
70 *698:RN *731:A1 5.41397e-05
71 *717:RN *709:I 6.40324e-06
72 *717:RN *714:EN 1.25828e-05
73 *744:RN *744:E 0.000176088
74 *744:RN *754:A2 1.84476e-05
75 *744:RN *779:I 0.00151574
76 *744:RN *878:I 0
77 *790:RN *790:E 0.000344012
78 *790:RN *800:A2 0.000118213
79 *813:RN *811:I 0.000158798
80 *813:RN *819:I 0.000150744
81 *859:RN *841:I 8.69931e-05
82 *859:RN *843:A1 0.000558359
83 *859:RN *851:I 0.000427029
84 *859:RN *873:A2 3.51198e-05
85 *53:10 *616:A1 0.00047198
86 *53:10 *759:EN 0.000166843
87 *53:10 *759:I 2.0224e-05
88 *53:10 *760:I 6.02899e-05
89 *53:10 *761:I 0.000196928
90 *53:10 *762:I 0.000683365
91 *53:10 *777:A1 3.46417e-05
92 *53:10 *56:20 0
93 *53:10 *56:22 0.000486059
94 *53:10 *101:34 5.56123e-05
95 *53:10 *205:16 0
96 *53:16 *754:A1 0.000130375
97 *53:16 *777:A1 0.000908459
98 *53:38 *777:A1 2.36152e-06
99 *53:38 *56:20 1.77867e-05
100 *53:48 *779:I 0.000106536
101 *53:62 *731:A2 3.94291e-05
102 *53:62 *56:20 8.65553e-07
103 *53:82 *616:A1 0.000161479
104 *53:82 *756:I 8.63363e-05
105 *53:89 *756:I 4.6613e-06
106 *53:89 *800:A1 2.09122e-05
107 *53:95 *616:A1 0
108 *53:95 *823:A1 0.000346414
109 *53:95 *245:12 0
110 *53:108 *650:I 0
111 *53:108 *804:I 5.38526e-05
112 *53:108 *823:A1 4.16932e-05
113 *53:108 *823:A2 0.000233886
114 *53:108 *824:I 4.30561e-05
115 *53:108 *886:E 0
116 *53:108 *101:14 0
117 *53:121 *618:I 0
118 *53:121 *811:I 4.06147e-05
119 *53:121 *814:I 0.00221435
120 *53:121 *819:I 0
121 *53:121 *821:I 0.00320488
122 *53:121 *824:I 1.67605e-05
123 *53:121 *79:6 0.000150744
124 *53:121 *238:12 0.000299724
125 *53:135 *806:EN 0.000555687
126 *53:135 *813:E 0.000101427
127 *53:135 *873:A1 0.000182438
128 *53:135 *245:12 9.91544e-05
129 *53:141 *873:A1 0.000121103
130 *53:143 *763:E 0.00039024
131 *53:143 *873:A1 0.000139944
132 *53:145 *763:E 0.000327261
133 *53:145 *873:A1 0.000362773
134 *53:147 *763:E 0.000240548
135 *53:147 *836:E 6.2979e-05
136 *53:147 *840:E 0.000169524
137 *53:147 *873:A1 0.000636151
138 *53:149 *836:E 0.000337978
139 *53:149 *873:A1 0.00037349
140 *53:151 *836:E 0.000237866
141 *53:151 *841:I 6.84043e-05
142 *53:151 *873:A1 0.000565127
143 *53:209 *811:I 0.000400957
144 *53:209 *819:I 0.000496785
145 *53:209 *873:A1 0.000143853
146 *53:209 *75:8 0.00015997
147 *53:231 *790:E 0.000169515
148 *53:231 *800:A1 0.000485868
149 *53:231 *800:A2 0.000225271
150 *53:231 *814:I 9.06417e-05
151 *53:231 *816:A1 6.19076e-05
152 *53:231 *879:EN 0.000425752
153 *53:231 *880:EN 0.000172257
154 *53:231 *76:66 1.94149e-05
155 *53:231 *76:72 9.85004e-05
156 *53:231 *292:6 5.15822e-05
157 *53:252 *696:I 2.40933e-06
158 *53:252 *708:A1 7.191e-07
159 *53:252 *754:A1 0.000283695
160 *53:252 *839:A1 9.92342e-05
161 *53:254 *675:E 5.50498e-05
162 *53:254 *696:I 2.42267e-05
163 *53:254 *708:A1 6.9725e-06
164 *53:258 *857:EN 0.00246125
165 *308:I *53:254 8.68281e-06
166 *308:I *53:258 0.000210938
167 *311:I *717:RN 9.07674e-05
168 *322:I *859:RN 0.00029532
169 *322:I *53:151 0.000553924
170 *593:I *53:82 9.84908e-05
171 *602:E *53:141 0.000262833
172 *607:I *53:135 0.000176088
173 *608:I *53:135 0.000920709
174 *608:I *53:141 2.65444e-06
175 *611:I *53:141 0.000444513
176 *611:I *53:143 8.05869e-05
177 *612:I *53:141 0
178 *615:I *53:135 6.17789e-06
179 *675:D *53:254 1.39839e-05
180 *694:D *694:RN 9.04462e-05
181 *763:D *53:147 6.0415e-05
182 *801:I *53:108 4.78286e-05
183 *887:D *53:108 3.73774e-06
184 *889:A1 *53:108 8.7437e-05
185 *5:17 *717:RN 0
186 *5:38 *53:82 1.14516e-05
187 *5:38 *53:89 6.75054e-06
188 *5:38 *53:231 1.69023e-06
189 *13:13 *652:RN 0.000591253
190 *13:13 *53:258 0.00227905
191 *14:17 *53:95 0
192 *15:27 *744:RN 0.00140116
193 *15:27 *53:48 0.000106536
194 *15:27 *53:62 0
195 *19:13 *53:121 5.20752e-05
196 *21:17 *53:135 7.01651e-05
197 *21:17 *53:141 3.22348e-05
198 *21:17 *53:209 0
199 *22:9 *629:RN 9.3226e-06
200 *28:13 *694:RN 0.00102906
201 *28:13 *53:16 0.00114473
202 *30:29 *53:82 0
203 *30:29 *53:231 0.000179533
204 *52:14 *53:141 0.000169515
*RES
1 *593:ZN *53:4 4.5 
2 *53:4 *53:10 10.8 
3 *53:10 *53:16 7.92 
4 *53:16 *694:RN 8.73 
5 *53:16 *698:RN 14.31 
6 *53:10 *53:38 1.08 
7 *53:38 *53:48 16.2 
8 *53:48 *740:RN 4.5 
9 *53:48 *744:RN 9.63 
10 *53:38 *53:62 1.35 
11 *53:62 *721:RN 9 
12 *53:62 *717:RN 11.7 
13 *53:4 *53:82 1.53 
14 *53:82 *883:I 4.5 
15 *53:82 *53:89 0.45 
16 *53:89 *53:95 12.15 
17 *53:95 *886:RN 4.5 
18 *53:95 *53:108 5.94 
19 *53:108 *887:RN 4.77 
20 *53:108 *53:121 14.4 
21 *53:121 *53:129 17.37 
22 *53:129 *53:135 5.49 
23 *53:135 *53:141 3.33 
24 *53:141 *53:143 1.71 
25 *53:143 *53:145 0.99 
26 *53:145 *53:147 1.71 
27 *53:147 *53:149 0.99 
28 *53:149 *53:151 2.61 
29 *53:151 *859:RN 7.11 
30 *53:151 *863:RN 4.5 
31 *53:149 *836:RN 4.5 
32 *53:147 *840:RN 4.5 
33 *53:145 *763:RN 4.5 
34 *53:143 *602:RN 4.5 
35 *53:141 *767:RN 4.5 
36 *53:135 *606:RN 4.5 
37 *53:129 *809:RN 4.5 
38 *53:121 *53:200 4.5 
39 *53:200 *813:RN 4.95 
40 *53:200 *53:209 2.25 
41 *53:209 *625:RN 4.5 
42 *53:209 *629:RN 6.21 
43 *53:89 *53:231 17.73 
44 *53:231 *786:RN 4.5 
45 *53:231 *790:RN 5.49 
46 *694:RN *53:252 5.76 
47 *53:252 *53:254 1.71 
48 *53:254 *53:258 11.07 
49 *53:258 *652:RN 12.24 
50 *53:258 *648:RN 9 
51 *53:254 *675:RN 4.5 
52 *53:252 *671:RN 14.85 
*END

*D_NET *54 0.00804385
*CONN
*I *618:I I *D gf180mcu_fd_sc_mcu7t5v0__clkbuf_2
*I *594:I I *D gf180mcu_fd_sc_mcu7t5v0__clkbuf_2
*I *597:ZN O *D gf180mcu_fd_sc_mcu7t5v0__invz_2
*I *850:A1 I *D gf180mcu_fd_sc_mcu7t5v0__xor2_1
*I *599:ZN O *D gf180mcu_fd_sc_mcu7t5v0__invz_8
*CAP
1 *618:I 0.00120905
2 *594:I 0
3 *597:ZN 0
4 *850:A1 0.000365579
5 *599:ZN 0
6 *54:36 0.00135165
7 *54:16 0.000714397
8 *54:6 0.000491418
9 *618:I *623:EN 1.61174e-05
10 *618:I *804:I 1.68677e-06
11 *618:I *886:E 0.000623009
12 *618:I *887:E 6.84043e-05
13 *618:I *229:8 0
14 *850:A1 *766:A1 3.659e-05
15 *850:A1 *771:I 3.01487e-05
16 *850:A1 *832:EN 0
17 *850:A1 *834:EN 1.61174e-05
18 *850:A1 *850:A2 3.44834e-06
19 *54:16 *769:I 0.000281238
20 *54:16 *770:A1 3.53802e-05
21 *54:16 *771:I 4.64672e-05
22 *54:16 *772:I 0.000148867
23 *54:16 *775:I 0.000638833
24 *54:36 *769:I 1.50737e-05
25 *54:36 *770:A1 5.05894e-05
26 *54:36 *776:I 0.000107798
27 *324:I *850:A1 1.4382e-06
28 *324:I *54:16 1.86887e-06
29 *327:I *618:I 0.000157882
30 *595:I *618:I 8.72457e-05
31 *887:D *618:I 9.60528e-05
32 *9:9 *618:I 1.90158e-05
33 *9:9 *54:16 0.000455766
34 *9:9 *54:36 0.000153464
35 *12:13 *618:I 0
36 *12:13 *850:A1 0.000194949
37 *12:13 *54:16 5.23429e-06
38 *23:15 *618:I 0.000153289
39 *52:14 *618:I 0.00038057
40 *52:14 *54:16 5.50633e-05
41 *52:14 *54:36 3.01487e-05
42 *53:121 *618:I 0
*RES
1 *599:ZN *54:6 9 
2 *54:6 *54:16 9.18 
3 *54:16 *850:A1 7.2 
4 *54:16 *597:ZN 4.5 
5 *54:6 *54:36 5.94 
6 *54:36 *594:I 4.5 
7 *54:36 *618:I 15.12 
*END

*D_NET *55 0.000554714
*CONN
*I *616:A2 I *D gf180mcu_fd_sc_mcu7t5v0__xor2_1
*I *594:Z O *D gf180mcu_fd_sc_mcu7t5v0__clkbuf_2
*CAP
1 *616:A2 5.55295e-05
2 *594:Z 5.55295e-05
3 *616:A2 *650:I 7.01651e-05
4 *9:9 *616:A2 0.00037349
*RES
1 *594:Z *616:A2 9.99 
*END

*D_NET *56 0.0131283
*CONN
*I *779:I I *D gf180mcu_fd_sc_mcu7t5v0__clkbuf_2
*I *616:A1 I *D gf180mcu_fd_sc_mcu7t5v0__xor2_1
*I *758:ZN O *D gf180mcu_fd_sc_mcu7t5v0__invz_2
*I *755:I I *D gf180mcu_fd_sc_mcu7t5v0__clkbuf_2
*I *760:ZN O *D gf180mcu_fd_sc_mcu7t5v0__invz_8
*CAP
1 *779:I 0.00017582
2 *616:A1 0.000452833
3 *758:ZN 0
4 *755:I 0.00026677
5 *760:ZN 0.000432707
6 *56:22 0.000640893
7 *56:20 0.00158631
8 *56:14 0.00136788
9 *616:A1 *756:I 0.000260418
10 *616:A1 *776:I 0
11 *616:A1 *823:A1 1.94402e-05
12 *616:A1 *101:8 0.000162001
13 *616:A1 *101:14 0.000162001
14 *755:I *685:A1 0
15 *755:I *731:A1 0.000130625
16 *755:I *101:34 2.99208e-05
17 *779:I *744:E 0.00134889
18 *779:I *754:A1 3.99224e-05
19 *779:I *184:8 0.000434794
20 *56:14 *717:E 0
21 *56:14 *721:E 1.07374e-05
22 *56:14 *731:A1 0.000116482
23 *56:14 *731:A2 0.000229163
24 *56:14 *754:A1 0.000169141
25 *56:14 *184:8 2.99793e-06
26 *56:20 *759:I 0.000109051
27 *56:20 *800:A1 0
28 *56:20 *101:8 0
29 *56:22 *731:A1 0
30 *56:22 *756:I 0.000317003
31 *56:22 *758:I 0.000835967
32 *56:22 *759:EN 7.08402e-05
33 *56:22 *760:EN 3.97987e-05
34 *56:22 *761:I 1.84368e-05
35 *56:22 *837:I 0
36 *56:22 *101:34 0.000126581
37 *56:22 *207:8 2.31089e-05
38 *698:D *56:22 5.30888e-06
39 *721:D *779:I 7.9743e-05
40 *721:D *56:14 0.000216222
41 *744:RN *779:I 0.00151574
42 *5:27 *616:A1 5.00297e-05
43 *5:31 *616:A1 0.00018838
44 *14:17 *755:I 0
45 *14:17 *56:22 1.80179e-05
46 *15:27 *779:I 0.000200623
47 *15:27 *56:20 2.13898e-05
48 *27:21 *56:14 0
49 *28:13 *779:I 7.55765e-06
50 *53:10 *616:A1 0.00047198
51 *53:10 *56:20 0
52 *53:10 *56:22 0.000486059
53 *53:38 *56:20 1.77867e-05
54 *53:48 *779:I 0.000106536
55 *53:62 *56:20 8.65553e-07
56 *53:82 *616:A1 0.000161479
57 *53:95 *616:A1 0
*RES
1 *760:ZN *56:14 8.91 
2 *56:14 *56:20 13.23 
3 *56:20 *56:22 5.13 
4 *56:22 *755:I 6.66 
5 *56:22 *758:ZN 4.5 
6 *56:20 *616:A1 18.9 
7 *56:14 *779:I 10.35 
*END

*D_NET *57 0.00314659
*CONN
*I *596:I I *D gf180mcu_fd_sc_mcu7t5v0__clkbuf_1
*I *599:I I *D gf180mcu_fd_sc_mcu7t5v0__invz_8
*I *600:I I *D gf180mcu_fd_sc_mcu7t5v0__invz_4
*I *595:Z O *D gf180mcu_fd_sc_mcu7t5v0__clkbuf_2
*CAP
1 *596:I 0
2 *599:I 0.000180595
3 *600:I 0.000206826
4 *595:Z 0.000174389
5 *57:17 0.000415819
6 *57:6 0.000616439
7 *595:I *57:17 0
8 *598:I *599:I 9.84908e-05
9 *598:I *600:I 2.54578e-05
10 *598:I *57:17 0.000864921
11 *598:ZN *600:I 0.000346825
12 *603:I *599:I 9.40498e-06
13 *603:I *600:I 8.14624e-05
14 *12:13 *599:I 6.33547e-05
15 *12:13 *57:17 6.26018e-05
*RES
1 *595:Z *57:6 5.67 
2 *57:6 *600:I 6.66 
3 *57:6 *57:17 2.79 
4 *57:17 *599:I 5.85 
5 *57:17 *596:I 4.5 
*END

*D_NET *58 0.00130741
*CONN
*I *621:I I *D gf180mcu_fd_sc_mcu7t5v0__invz_2
*I *619:Z O *D gf180mcu_fd_sc_mcu7t5v0__clkbuf_1
*CAP
1 *621:I 0.000201068
2 *619:Z 0.000201068
3 *621:I *621:EN 4.6613e-06
4 *621:I *638:I 0.000367978
5 *23:15 *621:I 0.00053263
*RES
1 *619:Z *621:I 11.25 
*END

*D_NET *59 0.00376655
*CONN
*I *624:I I *D gf180mcu_fd_sc_mcu7t5v0__clkinv_2
*I *621:ZN O *D gf180mcu_fd_sc_mcu7t5v0__invz_2
*I *623:ZN O *D gf180mcu_fd_sc_mcu7t5v0__invz_4
*CAP
1 *624:I 0.000315195
2 *621:ZN 9.07242e-05
3 *623:ZN 0.000108101
4 *59:10 0.000514021
5 *621:ZN *631:I 0.000270345
6 *621:ZN *78:25 0.00101571
7 *624:I *821:I 8.60867e-05
8 *624:I *822:I 4.6613e-06
9 *59:10 *821:I 0.000335957
10 *59:10 *78:25 0.000273552
11 clockp[0] *624:I 0.000267542
12 *825:I *624:I 3.98088e-05
13 *825:I *59:10 0.000120064
14 *19:13 *621:ZN 3.55431e-05
15 *19:13 *624:I 0.000161479
16 *19:13 *59:10 0.000127759
*RES
1 *623:ZN *59:10 10.8 
2 *59:10 *621:ZN 11.61 
3 *59:10 *624:I 11.61 
*END

*D_NET *60 0.000484712
*CONN
*I *620:I I *D gf180mcu_fd_sc_mcu7t5v0__invz_2
*I *624:ZN O *D gf180mcu_fd_sc_mcu7t5v0__clkinv_2
*CAP
1 *620:I 1.30609e-06
2 *624:ZN 1.30609e-06
3 *620:I *635:I 0.000154129
4 *620:I *822:I 0.00032797
*RES
1 *624:ZN *620:I 18.81 
*END

*D_NET *61 0.0144882
*CONN
*I *628:A1 I *D gf180mcu_fd_sc_mcu7t5v0__or2_2
*I *627:Z O *D gf180mcu_fd_sc_mcu7t5v0__clkbuf_1
*CAP
1 *628:A1 0.00205821
2 *627:Z 0.00205821
3 *628:A1 *619:I 0.00100799
4 *628:A1 *620:EN 1.89925e-05
5 *628:A1 *628:A2 3.01487e-05
6 *628:A1 *630:I 0.00650679
7 *628:A1 *631:I 0
8 *628:A1 *632:A2 0
9 *628:A1 *634:I 5.78854e-06
10 *628:A1 *635:I 0.000280366
11 *628:A1 *637:I 0.000365724
12 *628:A1 *753:I 0.00070103
13 *628:A1 *781:EN 0.000105575
14 *628:A1 *797:I 0.000212436
15 *628:A1 *798:I 0.000114261
16 *628:A1 *814:I 0.000379518
17 *628:A1 *826:I 0
18 *628:A1 *68:10 0
19 *628:A1 *68:29 0.000496966
20 clockp[1] *628:A1 0
21 *786:D *628:A1 0.000146222
*RES
1 *627:Z *628:A1 43.92 
*END

*D_NET *62 0.00202741
*CONN
*I *632:A1 I *D gf180mcu_fd_sc_mcu7t5v0__or2_2
*I *631:Z O *D gf180mcu_fd_sc_mcu7t5v0__clkbuf_1
*CAP
1 *632:A1 0.000334268
2 *631:Z 0.000334268
3 *632:A1 *620:EN 7.30754e-06
4 *632:A1 *626:I 0.000482374
5 *632:A1 *628:A2 1.86887e-06
6 *632:A1 *631:I 0.000193087
7 *632:A1 *635:I 1.56862e-05
8 *632:A1 *807:EN 0
9 *632:A1 *67:23 0.000346878
10 *23:15 *632:A1 0.000311669
*RES
1 *631:Z *632:A1 21.78 
*END

*D_NET *63 0.0011924
*CONN
*I *620:EN I *D gf180mcu_fd_sc_mcu7t5v0__invz_2
*I *628:Z O *D gf180mcu_fd_sc_mcu7t5v0__or2_2
*CAP
1 *620:EN 0.000528594
2 *628:Z 0.000528594
3 *620:EN *635:I 4.6613e-06
4 *620:EN *76:27 0.000104254
5 clockp[0] *620:EN 0
6 *628:A1 *620:EN 1.89925e-05
7 *632:A1 *620:EN 7.30754e-06
*RES
1 *628:Z *620:EN 12.33 
*END

*D_NET *64 0.00136156
*CONN
*I *621:EN I *D gf180mcu_fd_sc_mcu7t5v0__invz_2
*I *632:Z O *D gf180mcu_fd_sc_mcu7t5v0__or2_2
*CAP
1 *621:EN 0.0001992
2 *632:Z 0.0001992
3 *621:EN *631:I 2.36954e-05
4 *621:EN *632:A2 4.33758e-05
5 *621:EN *638:I 0.00059885
6 *621:EN *78:25 0.000248606
7 *621:I *621:EN 4.6613e-06
8 *23:15 *621:EN 4.39705e-05
*RES
1 *632:Z *621:EN 20.52 
*END

*D_NET *65 0.000863146
*CONN
*I *627:I I *D gf180mcu_fd_sc_mcu7t5v0__clkbuf_1
*I *626:Z O *D gf180mcu_fd_sc_mcu7t5v0__clkbuf_1
*CAP
1 *627:I 0.000417655
2 *626:Z 0.000417655
3 *627:I *626:I 0
4 *627:I *634:I 1.20058e-05
5 *627:I *635:I 1.58303e-05
*RES
1 *626:Z *627:I 20.52 
*END

*D_NET *66 0.0096329
*CONN
*I *631:I I *D gf180mcu_fd_sc_mcu7t5v0__clkbuf_1
*I *630:Z O *D gf180mcu_fd_sc_mcu7t5v0__clkbuf_1
*CAP
1 *631:I 0.00165785
2 *630:Z 0.00165785
3 *631:I *628:A2 0
4 *631:I *634:I 0.00168606
5 *631:I *638:I 0.000763634
6 *631:I *639:A1 1.07281e-05
7 *631:I *780:I 0.000457092
8 *631:I *784:EN 0.000409673
9 *631:I *785:I 0.000165741
10 *631:I *797:I 0.000181638
11 *631:I *807:EN 1.4382e-06
12 *631:I *67:8 2.08301e-05
13 *631:I *68:10 0.000223398
14 *631:I *78:23 0.000132032
15 *631:I *78:25 7.48138e-05
16 *631:I *218:8 0.000103976
17 *631:I *218:20 0.000151455
18 *303:I *631:I 3.64412e-05
19 *304:I *631:I 6.48744e-05
20 *621:EN *631:I 2.36954e-05
21 *621:ZN *631:I 0.000270345
22 *628:A1 *631:I 0
23 *632:A1 *631:I 0.000193087
24 *790:D *631:I 0.000609231
25 *19:13 *631:I 0.000737018
*RES
1 *630:Z *631:I 39.6 
*END

*D_NET *67 0.0179843
*CONN
*I *626:I I *D gf180mcu_fd_sc_mcu7t5v0__clkbuf_1
*I *628:A2 I *D gf180mcu_fd_sc_mcu7t5v0__or2_2
*I *633:I I *D gf180mcu_fd_sc_mcu7t5v0__inv_1
*I *625:Q O *D gf180mcu_fd_sc_mcu7t5v0__latrnq_1
*CAP
1 *626:I 0.0012024
2 *628:A2 4.79575e-05
3 *633:I 0.000292187
4 *625:Q 8.04888e-05
5 *67:23 0.00131657
6 *67:8 0.000438888
7 *626:I *634:I 0.00769379
8 *626:I *635:I 0
9 *626:I *782:EN 0.000536348
10 *626:I *791:I 0
11 *626:I *798:I 0.0019864
12 *626:I *76:14 0.00027166
13 *633:I *634:I 0.000461431
14 *633:I *873:A1 0
15 *67:8 *807:EN 3.58337e-05
16 *67:8 *68:10 0.000223398
17 *67:23 *634:I 0.00061786
18 clockp[0] *626:I 1.44901e-05
19 *304:I *633:I 0.00100031
20 *304:I *67:8 1.0415e-05
21 *627:I *626:I 0
22 *628:A1 *628:A2 3.01487e-05
23 *631:I *628:A2 0
24 *631:I *67:8 2.08301e-05
25 *632:A1 *626:I 0.000482374
26 *632:A1 *628:A2 1.86887e-06
27 *632:A1 *67:23 0.000346878
28 *22:9 *633:I 1.36965e-05
29 *23:15 *626:I 0.000192743
30 *23:15 *633:I 0.000596699
31 *23:15 *67:23 6.8611e-05
*RES
1 *625:Q *67:8 9.81 
2 *67:8 *633:I 14.13 
3 *67:8 *67:23 1.71 
4 *67:23 *628:A2 9.27 
5 *67:23 *626:I 30.51 
*END

*D_NET *68 0.0160153
*CONN
*I *630:I I *D gf180mcu_fd_sc_mcu7t5v0__clkbuf_1
*I *632:A2 I *D gf180mcu_fd_sc_mcu7t5v0__or2_2
*I *636:I I *D gf180mcu_fd_sc_mcu7t5v0__inv_1
*I *629:Q O *D gf180mcu_fd_sc_mcu7t5v0__latrnq_1
*CAP
1 *630:I 0.000729633
2 *632:A2 0.000402815
3 *636:I 0.00036763
4 *629:Q 0.000393186
5 *68:29 0.00131331
6 *68:10 0.000941674
7 *630:I *797:I 0.000296869
8 *630:I *826:I 0.000237513
9 *630:I *78:23 0.00119813
10 *630:I *78:25 0.000728492
11 *632:A2 *638:I 0.000152309
12 *636:I *637:I 0.000272758
13 *636:I *802:I 1.77397e-05
14 *636:I *803:I 0.000611712
15 *636:I *805:ZN 1.70035e-05
16 *636:I *807:I 9.10759e-06
17 *636:I *816:A1 3.22351e-05
18 *636:I *818:I 9.33275e-05
19 *636:I *229:8 7.98033e-06
20 *68:10 *637:I 0
21 *68:10 *639:A1 4.22217e-05
22 *68:10 *802:I 7.84041e-05
23 *68:10 *807:EN 5.53346e-05
24 *68:10 *814:I 0
25 *68:10 *819:I 0.000101615
26 *68:10 *78:25 6.06531e-05
27 *68:29 *814:I 0
28 *68:29 *78:25 0.000155005
29 *621:EN *632:A2 4.33758e-05
30 *628:A1 *630:I 0.00650679
31 *628:A1 *632:A2 0
32 *628:A1 *68:10 0
33 *628:A1 *68:29 0.000496966
34 *631:I *68:10 0.000223398
35 *19:13 *636:I 0.000204743
36 *23:15 *632:A2 0
37 *67:8 *68:10 0.000223398
*RES
1 *629:Q *68:10 12.24 
2 *68:10 *636:I 21.69 
3 *68:10 *68:29 1.89 
4 *68:29 *632:A2 11.43 
5 *68:29 *630:I 26.82 
*END

*D_NET *69 0.0160861
*CONN
*I *634:I I *D gf180mcu_fd_sc_mcu7t5v0__clkbuf_1
*I *633:ZN O *D gf180mcu_fd_sc_mcu7t5v0__inv_1
*CAP
1 *634:I 0.00142903
2 *633:ZN 0.00142903
3 *634:I *635:I 3.58729e-05
4 *634:I *780:I 0.000985898
5 *634:I *797:I 0
6 *634:I *873:A1 0
7 *634:I *218:20 0.000358547
8 *303:I *634:I 0.000246044
9 *304:I *634:I 0.00099774
10 *626:I *634:I 0.00769379
11 *627:I *634:I 1.20058e-05
12 *628:A1 *634:I 5.78854e-06
13 *629:RN *634:I 1.56942e-05
14 *631:I *634:I 0.00168606
15 *633:I *634:I 0.000461431
16 *22:9 *634:I 0.000111296
17 *67:23 *634:I 0.00061786
*RES
1 *633:ZN *634:I 44.91 
*END

*D_NET *70 0.00228885
*CONN
*I *637:I I *D gf180mcu_fd_sc_mcu7t5v0__clkbuf_1
*I *636:ZN O *D gf180mcu_fd_sc_mcu7t5v0__inv_1
*CAP
1 *637:I 0.000409832
2 *636:ZN 0.000409832
3 *637:I *638:I 0
4 *637:I *802:I 1.86887e-06
5 *637:I *803:I 0.000799893
6 *637:I *805:I 2.75073e-05
7 *637:I *805:ZN 1.4382e-06
8 *628:A1 *637:I 0.000365724
9 *636:I *637:I 0.000272758
10 *68:10 *637:I 0
*RES
1 *636:ZN *637:I 13.32 
*END

*D_NET *71 0.00792621
*CONN
*I *635:I I *D gf180mcu_fd_sc_mcu7t5v0__clkbuf_1
*I *634:Z O *D gf180mcu_fd_sc_mcu7t5v0__clkbuf_1
*CAP
1 *635:I 0.00279328
2 *634:Z 0.00279328
3 *635:I *622:EN 0.0012112
4 *635:I *782:EN 0
5 *635:I *791:I 0.000292165
6 *635:I *798:I 0
7 *635:I *799:I 0
8 *635:I *822:I 0.000154581
9 *635:I *76:14 9.81757e-05
10 *635:I *76:27 7.69786e-05
11 clockp[0] *635:I 0
12 *620:EN *635:I 4.6613e-06
13 *620:I *635:I 0.000154129
14 *626:I *635:I 0
15 *627:I *635:I 1.58303e-05
16 *628:A1 *635:I 0.000280366
17 *632:A1 *635:I 1.56862e-05
18 *634:I *635:I 3.58729e-05
*RES
1 *634:Z *635:I 40.41 
*END

*D_NET *72 0.00280556
*CONN
*I *638:I I *D gf180mcu_fd_sc_mcu7t5v0__clkbuf_1
*I *637:Z O *D gf180mcu_fd_sc_mcu7t5v0__clkbuf_1
*CAP
1 *638:I 0.000361859
2 *637:Z 0.000361859
3 *638:I *805:I 2.75073e-05
4 *638:I *78:25 4.76541e-05
5 *621:EN *638:I 0.00059885
6 *621:I *638:I 0.000367978
7 *631:I *638:I 0.000763634
8 *632:A2 *638:I 0.000152309
9 *637:I *638:I 0
10 *23:15 *638:I 0.000123905
*RES
1 *637:Z *638:I 22.68 
*END

*D_NET *73 0.00322661
*CONN
*I *622:EN I *D gf180mcu_fd_sc_mcu7t5v0__invz_8
*I *635:Z O *D gf180mcu_fd_sc_mcu7t5v0__clkbuf_1
*CAP
1 *622:EN 0.000263936
2 *635:Z 0.000263936
3 *622:EN *622:I 0
4 *622:EN *76:14 0.000152365
5 *622:EN *76:27 0.00126314
6 clockp[0] *622:EN 0
7 *635:I *622:EN 0.0012112
8 *23:15 *622:EN 7.20334e-05
*RES
1 *635:Z *622:EN 22.68 
*END

*D_NET *74 0.000475101
*CONN
*I *623:EN I *D gf180mcu_fd_sc_mcu7t5v0__invz_4
*I *638:Z O *D gf180mcu_fd_sc_mcu7t5v0__clkbuf_1
*CAP
1 *623:EN 0.000158055
2 *638:Z 0.000158055
3 *623:EN *79:6 0
4 *618:I *623:EN 1.61174e-05
5 *23:15 *623:EN 0.000142874
*RES
1 *638:Z *623:EN 10.26 
*END

*D_NET *75 0.000983803
*CONN
*I *629:E I *D gf180mcu_fd_sc_mcu7t5v0__latrnq_1
*I *625:E I *D gf180mcu_fd_sc_mcu7t5v0__latrnq_1
*I *639:Z O *D gf180mcu_fd_sc_mcu7t5v0__xor2_1
*CAP
1 *629:E 5.41084e-05
2 *625:E 0
3 *639:Z 0.000183979
4 *75:8 0.000238088
5 *629:RN *629:E 8.69474e-05
6 *629:RN *75:8 8.53098e-05
7 *21:17 *75:8 2.79586e-05
8 *22:9 *629:E 0.000147441
9 *53:209 *75:8 0.00015997
*RES
1 *639:Z *75:8 6.3 
2 *75:8 *625:E 4.5 
3 *75:8 *629:E 5.13 
*END

*D_NET *76 0.0237238
*CONN
*I *877:I I *D gf180mcu_fd_sc_mcu7t5v0__clkbuf_1
*I *880:I I *D gf180mcu_fd_sc_mcu7t5v0__invz_8
*I *881:I I *D gf180mcu_fd_sc_mcu7t5v0__invz_4
*I *617:I I *D gf180mcu_fd_sc_mcu7t5v0__clkbuf_2
*I *873:A1 I *D gf180mcu_fd_sc_mcu7t5v0__xor2_1
*I *620:ZN O *D gf180mcu_fd_sc_mcu7t5v0__invz_2
*I *622:ZN O *D gf180mcu_fd_sc_mcu7t5v0__invz_8
*CAP
1 *877:I 8.59235e-05
2 *880:I 0.00034587
3 *881:I 3.44897e-05
4 *617:I 0
5 *873:A1 0.00200329
6 *620:ZN 0
7 *622:ZN 0.00111715
8 *76:72 0.000663952
9 *76:66 0.00095722
10 *76:27 0.00248986
11 *76:14 0.00101602
12 *873:A1 *639:A1 0.000354728
13 *873:A1 *639:A2 0.000383334
14 *873:A1 *806:EN 0.000405063
15 *873:A1 *807:EN 0
16 *873:A1 *811:I 0
17 *873:A1 *817:I 0.000109569
18 *873:A1 *818:I 0.00019371
19 *873:A1 *819:I 0.000707646
20 *873:A1 *820:I 0
21 *873:A1 *822:I 3.73774e-06
22 *873:A1 *841:I 0.000161498
23 *873:A1 *238:12 0
24 *877:I *814:I 7.99701e-05
25 *877:I *816:A1 6.9384e-06
26 *880:I *800:A1 0.000534868
27 *880:I *874:A1 2.38983e-05
28 *880:I *878:I 1.87105e-05
29 *880:I *878:ZN 3.99345e-05
30 *880:I *879:I 1.73683e-05
31 *880:I *879:ZN 3.99345e-05
32 *76:14 *778:I 9.68124e-05
33 *76:14 *821:I 0
34 *76:14 *822:I 0.00014474
35 *76:27 *639:A2 0.000166798
36 *76:27 *822:I 0.00233652
37 *76:66 *790:E 7.69961e-05
38 *76:66 *795:I 5.55671e-05
39 *76:66 *800:A2 0
40 *76:66 *879:I 9.85004e-05
41 *76:72 *800:A1 0.000145725
42 *76:72 *814:I 0.000123549
43 *76:72 *816:A1 1.3335e-05
44 *76:72 *879:I 2.64106e-05
45 clockp[0] *76:14 0.000512144
46 *604:I *873:A1 0.00235859
47 *607:I *873:A1 0.000436469
48 *609:A2 *873:A1 0.000231442
49 *615:I *873:A1 5.10066e-05
50 *620:EN *76:27 0.000104254
51 *622:EN *76:14 0.000152365
52 *622:EN *76:27 0.00126314
53 *626:I *76:14 0.00027166
54 *629:RN *873:A1 0.000243311
55 *633:I *873:A1 0
56 *634:I *873:A1 0
57 *635:I *76:14 9.81757e-05
58 *635:I *76:27 7.69786e-05
59 *14:17 *880:I 0.000169515
60 *23:15 *76:27 3.23149e-05
61 *53:135 *873:A1 0.000182438
62 *53:141 *873:A1 0.000121103
63 *53:143 *873:A1 0.000139944
64 *53:145 *873:A1 0.000362773
65 *53:147 *873:A1 0.000636151
66 *53:149 *873:A1 0.00037349
67 *53:151 *873:A1 0.000565127
68 *53:209 *873:A1 0.000143853
69 *53:231 *76:66 1.94149e-05
70 *53:231 *76:72 9.85004e-05
*RES
1 *622:ZN *76:14 19.17 
2 *76:14 *620:ZN 4.5 
3 *76:14 *76:27 16.38 
4 *76:27 *873:A1 29.25 
5 *76:27 *617:I 4.5 
6 *622:ZN *76:66 12.78 
7 *76:66 *76:72 6.84 
8 *76:72 *881:I 4.77 
9 *76:72 *880:I 8.37 
10 *76:66 *877:I 9.63 
*END

*D_NET *77 0.00198638
*CONN
*I *639:A2 I *D gf180mcu_fd_sc_mcu7t5v0__xor2_1
*I *617:Z O *D gf180mcu_fd_sc_mcu7t5v0__clkbuf_2
*CAP
1 *639:A2 0.000466442
2 *617:Z 0.000466442
3 *639:A2 *639:A1 0.000286386
4 *639:A2 *807:EN 0.000133887
5 *639:A2 *822:I 4.6613e-06
6 *873:A1 *639:A2 0.000383334
7 *23:15 *639:A2 7.84312e-05
8 *76:27 *639:A2 0.000166798
*RES
1 *617:Z *639:A2 22.5 
*END

*D_NET *78 0.0142222
*CONN
*I *778:I I *D gf180mcu_fd_sc_mcu7t5v0__clkbuf_2
*I *802:I I *D gf180mcu_fd_sc_mcu7t5v0__clkbuf_2
*I *639:A1 I *D gf180mcu_fd_sc_mcu7t5v0__xor2_1
*I *781:ZN O *D gf180mcu_fd_sc_mcu7t5v0__invz_2
*I *783:ZN O *D gf180mcu_fd_sc_mcu7t5v0__invz_8
*CAP
1 *778:I 0.00033234
2 *802:I 0.000361983
3 *639:A1 0.000234391
4 *781:ZN 0
5 *783:ZN 0.000181604
6 *78:25 0.00128776
7 *78:23 0.00177009
8 *78:8 0.000927964
9 *639:A1 *811:I 7.191e-07
10 *639:A1 *819:I 0.000154825
11 *778:I *800:A2 0.000410856
12 *802:I *805:EN 0.000346684
13 *802:I *807:EN 0
14 *802:I *810:I 0.000288535
15 *802:I *818:I 0.000407594
16 *802:I *819:I 0.000169515
17 *78:8 *736:EN 0
18 *78:8 *752:I 0
19 *78:8 *227:20 0
20 *78:23 *752:I 0
21 *78:23 *781:I 9.98732e-05
22 *78:23 *797:I 0.00138168
23 *78:23 *218:8 0.000501506
24 *78:23 *227:20 0
25 *303:I *639:A1 0.000252977
26 *621:EN *78:25 0.000248606
27 *621:ZN *78:25 0.00101571
28 *630:I *78:23 0.00119813
29 *630:I *78:25 0.000728492
30 *631:I *639:A1 1.07281e-05
31 *631:I *78:23 0.000132032
32 *631:I *78:25 7.48138e-05
33 *636:I *802:I 1.77397e-05
34 *637:I *802:I 1.86887e-06
35 *638:I *78:25 4.76541e-05
36 *639:A2 *639:A1 0.000286386
37 *790:D *78:23 2.70125e-05
38 *790:D *78:25 0.00015673
39 *873:A1 *639:A1 0.000354728
40 *19:13 *78:25 0.000103981
41 *59:10 *78:25 0.000273552
42 *68:10 *639:A1 4.22217e-05
43 *68:10 *802:I 7.84041e-05
44 *68:10 *78:25 6.06531e-05
45 *68:29 *78:25 0.000155005
46 *76:14 *778:I 9.68124e-05
*RES
1 *783:ZN *78:8 5.58 
2 *78:8 *781:ZN 4.5 
3 *78:8 *78:23 14.22 
4 *78:23 *78:25 9.09 
5 *78:25 *639:A1 12.42 
6 *78:25 *802:I 12.87 
7 *78:23 *778:I 11.97 
*END

*D_NET *79 0.00346546
*CONN
*I *622:I I *D gf180mcu_fd_sc_mcu7t5v0__invz_8
*I *619:I I *D gf180mcu_fd_sc_mcu7t5v0__clkbuf_1
*I *623:I I *D gf180mcu_fd_sc_mcu7t5v0__invz_4
*I *618:Z O *D gf180mcu_fd_sc_mcu7t5v0__clkbuf_2
*CAP
1 *622:I 0.000368518
2 *619:I 0.000136995
3 *623:I 0
4 *618:Z 0.000218457
5 *79:6 0.00072397
6 *619:I *814:I 0.000169805
7 clockp[0] *622:I 0.000412354
8 *622:EN *622:I 0
9 *623:EN *79:6 0
10 *628:A1 *619:I 0.00100799
11 *19:13 *622:I 0.000194959
12 *19:13 *79:6 8.16641e-05
13 *23:15 *622:I 0
14 *53:121 *79:6 0.000150744
*RES
1 *618:Z *79:6 6.03 
2 *79:6 *623:I 4.5 
3 *79:6 *619:I 16.11 
4 *79:6 *622:I 7.38 
*END

*D_NET *80 0.00382077
*CONN
*I *644:I I *D gf180mcu_fd_sc_mcu7t5v0__invz_2
*I *642:Z O *D gf180mcu_fd_sc_mcu7t5v0__clkbuf_1
*CAP
1 *644:I 0.000269084
2 *642:Z 0.000269084
3 *644:I *642:I 0.00150705
4 *644:I *644:ZN 9.92342e-05
5 *644:I *647:I 1.67114e-05
6 *644:I *708:A1 4.77847e-05
7 *644:I *871:I 0.00151333
8 *644:I *102:20 9.84908e-05
*RES
1 *642:Z *644:I 23.4 
*END

*D_NET *81 0.00310138
*CONN
*I *644:ZN O *D gf180mcu_fd_sc_mcu7t5v0__invz_2
*I *647:I I *D gf180mcu_fd_sc_mcu7t5v0__clkinv_2
*I *646:ZN O *D gf180mcu_fd_sc_mcu7t5v0__invz_4
*CAP
1 *644:ZN 0.000116958
2 *647:I 0.00032693
3 *646:ZN 0.00012617
4 *81:10 0.000570058
5 *644:ZN *99:20 8.54511e-06
6 *647:I *856:EN 0.000147089
7 *647:I *868:I 0.000540928
8 *647:I *99:20 0.000310209
9 *647:I *102:20 0.000162123
10 *81:10 *857:EN 0.000121815
11 *81:10 *860:I 0.00055461
12 *644:I *644:ZN 9.92342e-05
13 *644:I *647:I 1.67114e-05
*RES
1 *646:ZN *81:10 15.03 
2 *81:10 *647:I 17.01 
3 *81:10 *644:ZN 5.31 
*END

*D_NET *82 0.0014586
*CONN
*I *643:I I *D gf180mcu_fd_sc_mcu7t5v0__invz_2
*I *647:ZN O *D gf180mcu_fd_sc_mcu7t5v0__clkinv_2
*CAP
1 *643:I 0.000391282
2 *647:ZN 0.000391282
3 *643:I *643:ZN 9.16808e-05
4 *643:I *645:EN 0.000365265
5 *643:I *99:20 0.000219086
*RES
1 *647:ZN *643:I 12.42 
*END

*D_NET *83 0.0109563
*CONN
*I *708:A1 I *D gf180mcu_fd_sc_mcu7t5v0__xor2_1
*I *641:I I *D gf180mcu_fd_sc_mcu7t5v0__clkbuf_2
*I *854:ZN O *D gf180mcu_fd_sc_mcu7t5v0__invz_2
*I *851:I I *D gf180mcu_fd_sc_mcu7t5v0__clkbuf_2
*I *856:ZN O *D gf180mcu_fd_sc_mcu7t5v0__invz_8
*CAP
1 *708:A1 0.00129522
2 *641:I 0.00228731
3 *854:ZN 9.81596e-05
4 *851:I 0.000776705
5 *856:ZN 0.000433137
6 *83:10 0.000949747
7 *83:8 0.00150011
8 *641:I *643:ZN 3.55118e-05
9 *641:I *645:EN 0.00033721
10 *641:I *651:A1 0.00064027
11 *641:I *854:I 4.03719e-05
12 *708:A1 *643:ZN 5.03133e-05
13 *708:A1 *645:I 0.000135136
14 *708:A1 *675:E 0.000127736
15 *708:A1 *676:I 0
16 *708:A1 *694:E 4.76605e-05
17 *708:A1 *839:A1 0.000325412
18 *708:A1 *102:20 5.20918e-05
19 *851:I *651:A1 0.000443197
20 *851:I *841:I 0.000180729
21 *851:I *842:I 0.000225322
22 *851:I *843:A1 0.000176088
23 *851:I *854:EN 1.23715e-05
24 *83:8 *845:I 0
25 *83:8 *846:I 0
26 *83:8 *854:I 9.04462e-05
27 *83:8 *858:I 1.0415e-05
28 *83:10 *651:A1 6.58085e-05
29 *308:I *708:A1 0
30 *322:I *851:I 3.26871e-05
31 *644:I *708:A1 4.77847e-05
32 *671:D *708:A1 1.20058e-05
33 *675:D *708:A1 1.39839e-05
34 *694:D *708:A1 3.12451e-05
35 *694:RN *708:A1 3.62279e-05
36 *859:RN *851:I 0.000427029
37 *26:13 *708:A1 1.11764e-05
38 *53:252 *708:A1 7.191e-07
39 *53:254 *708:A1 6.9725e-06
*RES
1 *856:ZN *83:8 11.61 
2 *83:8 *83:10 0.63 
3 *83:10 *851:I 17.28 
4 *83:10 *854:ZN 9.63 
5 *83:8 *641:I 19.89 
6 *641:I *708:A1 17.19 
*END

*D_NET *84 0.00372645
*CONN
*I *651:A1 I *D gf180mcu_fd_sc_mcu7t5v0__or2_2
*I *650:Z O *D gf180mcu_fd_sc_mcu7t5v0__clkbuf_1
*CAP
1 *651:A1 0.000436815
2 *650:Z 0.000436815
3 *651:A1 *645:EN 0.000247379
4 *651:A1 *650:I 0.00144437
5 *651:A1 *854:I 1.17934e-05
6 *641:I *651:A1 0.00064027
7 *851:I *651:A1 0.000443197
8 *83:10 *651:A1 6.58085e-05
*RES
1 *650:Z *651:A1 27.36 
*END

*D_NET *85 0.000160952
*CONN
*I *655:A1 I *D gf180mcu_fd_sc_mcu7t5v0__or2_2
*I *654:Z O *D gf180mcu_fd_sc_mcu7t5v0__clkbuf_1
*CAP
1 *655:A1 8.0476e-05
2 *654:Z 8.0476e-05
*RES
1 *654:Z *655:A1 9.63 
*END

*D_NET *86 0.00109369
*CONN
*I *643:EN I *D gf180mcu_fd_sc_mcu7t5v0__invz_2
*I *651:Z O *D gf180mcu_fd_sc_mcu7t5v0__or2_2
*CAP
1 *643:EN 2.27273e-07
2 *651:Z 2.27273e-07
3 *643:EN *645:EN 0.000546617
4 *643:EN *854:I 0.000546617
*RES
1 *651:Z *643:EN 19.35 
*END

*D_NET *87 0.000485645
*CONN
*I *644:EN I *D gf180mcu_fd_sc_mcu7t5v0__invz_2
*I *655:Z O *D gf180mcu_fd_sc_mcu7t5v0__or2_2
*CAP
1 *644:EN 0.000227204
2 *655:Z 0.000227204
3 *644:EN *91:10 0
4 *644:EN *99:20 3.12377e-05
*RES
1 *655:Z *644:EN 10.26 
*END

*D_NET *88 0.0130794
*CONN
*I *650:I I *D gf180mcu_fd_sc_mcu7t5v0__clkbuf_1
*I *649:Z O *D gf180mcu_fd_sc_mcu7t5v0__clkbuf_1
*CAP
1 *650:I 0.00248535
2 *649:Z 0.00248535
3 *650:I *649:I 0.00247356
4 *650:I *651:A2 0.000259059
5 *650:I *652:E 4.80371e-05
6 *650:I *661:I 5.71512e-05
7 *650:I *766:A1 4.5615e-05
8 *650:I *770:A1 0.000212124
9 *650:I *770:A2 9.85004e-05
10 *650:I *832:EN 0
11 *650:I *832:ZN 0.000496776
12 *650:I *834:I 0.000171278
13 *650:I *854:I 0.00168285
14 *650:I *856:EN 4.45729e-05
15 *650:I *856:I 8.22087e-05
16 *650:I *101:14 0
17 *650:I *267:8 0.000423921
18 *650:I *271:26 0.000359365
19 *321:I *650:I 5.50507e-05
20 *616:A2 *650:I 7.01651e-05
21 *651:A1 *650:I 0.00144437
22 *652:D *650:I 0
23 *652:RN *650:I 4.06178e-05
24 *9:9 *650:I 4.35142e-05
25 *53:108 *650:I 0
*RES
1 *649:Z *650:I 45.81 
*END

*D_NET *89 0.000210454
*CONN
*I *654:I I *D gf180mcu_fd_sc_mcu7t5v0__clkbuf_1
*I *653:Z O *D gf180mcu_fd_sc_mcu7t5v0__clkbuf_1
*CAP
1 *654:I 7.19852e-05
2 *653:Z 7.19852e-05
3 *654:I *651:A2 5.89263e-05
4 *305:I *654:I 7.55765e-06
*RES
1 *653:Z *654:I 9.63 
*END

*D_NET *90 0.0125763
*CONN
*I *649:I I *D gf180mcu_fd_sc_mcu7t5v0__clkbuf_1
*I *651:A2 I *D gf180mcu_fd_sc_mcu7t5v0__or2_2
*I *656:I I *D gf180mcu_fd_sc_mcu7t5v0__inv_1
*I *648:Q O *D gf180mcu_fd_sc_mcu7t5v0__latrnq_1
*CAP
1 *649:I 0.00152565
2 *651:A2 0.000515492
3 *656:I 0.000473073
4 *648:Q 7.76871e-05
5 *90:27 0.00207313
6 *90:8 0.000582748
7 *649:I *758:EN 4.50886e-05
8 *649:I *761:EN 0.000225911
9 *649:I *832:I 0.000150111
10 *649:I *832:ZN 0.000496776
11 *649:I *91:10 7.5809e-06
12 *649:I *101:14 0.000169515
13 *651:A2 *856:EN 6.34901e-05
14 *656:I *833:EN 0.000287269
15 *656:I *834:EN 4.39538e-05
16 *656:I *846:I 0.000597829
17 *656:I *856:I 0
18 *656:I *860:I 0.000164228
19 *90:8 *660:I 2.13093e-05
20 *90:8 *833:EN 0.000206266
21 *90:27 *860:I 0.000752893
22 *305:I *649:I 2.09276e-06
23 *305:I *651:A2 9.45473e-05
24 *648:D *649:I 1.43641e-05
25 *650:I *649:I 0.00247356
26 *650:I *651:A2 0.000259059
27 *654:I *651:A2 5.89263e-05
28 *24:15 *656:I 0.00015651
29 *24:15 *90:27 0.000769673
30 *30:29 *649:I 0.000267531
*RES
1 *648:Q *90:8 9.63 
2 *90:8 *656:I 13.14 
3 *90:8 *90:27 6.57 
4 *90:27 *651:A2 8.01 
5 *90:27 *649:I 19.35 
*END

*D_NET *91 0.00297123
*CONN
*I *659:I I *D gf180mcu_fd_sc_mcu7t5v0__inv_1
*I *655:A2 I *D gf180mcu_fd_sc_mcu7t5v0__or2_2
*I *653:I I *D gf180mcu_fd_sc_mcu7t5v0__clkbuf_1
*I *652:Q O *D gf180mcu_fd_sc_mcu7t5v0__latrnq_1
*CAP
1 *659:I 8.0476e-05
2 *655:A2 8.60691e-06
3 *653:I 3.37056e-05
4 *652:Q 0.000464241
5 *91:10 0.000426077
6 *653:I *860:I 0.000227863
7 *653:I *871:I 0.000526079
8 *655:A2 *860:I 0.000214724
9 *655:A2 *871:I 0.000437294
10 *91:10 *98:10 0
11 *305:I *91:10 0.000278766
12 *644:EN *91:10 0
13 *648:D *91:10 0.000265813
14 *649:I *91:10 7.5809e-06
*RES
1 *652:Q *91:10 11.52 
2 *91:10 *653:I 10.35 
3 *91:10 *655:A2 10.17 
4 *652:Q *659:I 9.63 
*END

*D_NET *92 0.000160952
*CONN
*I *657:I I *D gf180mcu_fd_sc_mcu7t5v0__clkbuf_1
*I *656:ZN O *D gf180mcu_fd_sc_mcu7t5v0__inv_1
*CAP
1 *657:I 8.0476e-05
2 *656:ZN 8.0476e-05
*RES
1 *656:ZN *657:I 9.63 
*END

*D_NET *93 0.00317907
*CONN
*I *660:I I *D gf180mcu_fd_sc_mcu7t5v0__clkbuf_1
*I *659:ZN O *D gf180mcu_fd_sc_mcu7t5v0__inv_1
*CAP
1 *660:I 0.000379842
2 *659:ZN 0.000379842
3 *660:I *652:E 0.00022939
4 *660:I *833:EN 6.83723e-05
5 *660:I *856:I 0.000783563
6 *660:I *864:I 2.81034e-05
7 *660:I *98:10 8.25538e-05
8 *25:17 *660:I 0.00120609
9 *90:8 *660:I 2.13093e-05
*RES
1 *659:ZN *660:I 23.4 
*END

*D_NET *94 0.000160952
*CONN
*I *658:I I *D gf180mcu_fd_sc_mcu7t5v0__clkbuf_1
*I *657:Z O *D gf180mcu_fd_sc_mcu7t5v0__clkbuf_1
*CAP
1 *658:I 8.0476e-05
2 *657:Z 8.0476e-05
*RES
1 *657:Z *658:I 9.63 
*END

*D_NET *95 0.00228779
*CONN
*I *661:I I *D gf180mcu_fd_sc_mcu7t5v0__clkbuf_1
*I *660:Z O *D gf180mcu_fd_sc_mcu7t5v0__clkbuf_1
*CAP
1 *661:I 8.79386e-05
2 *660:Z 8.79386e-05
3 *661:I *856:I 0.000291749
4 *661:I *858:I 0.000882791
5 *661:I *279:16 0.000880222
6 *650:I *661:I 5.71512e-05
*RES
1 *660:Z *661:I 21.06 
*END

*D_NET *96 0.0026499
*CONN
*I *645:EN I *D gf180mcu_fd_sc_mcu7t5v0__invz_8
*I *658:Z O *D gf180mcu_fd_sc_mcu7t5v0__clkbuf_1
*CAP
1 *645:EN 0.000310734
2 *658:Z 0.000310734
3 *645:EN *643:ZN 2.40933e-06
4 *645:EN *854:I 0.000529552
5 *641:I *645:EN 0.00033721
6 *643:EN *645:EN 0.000546617
7 *643:I *645:EN 0.000365265
8 *651:A1 *645:EN 0.000247379
*RES
1 *658:Z *645:EN 23.76 
*END

*D_NET *97 0.00144185
*CONN
*I *646:EN I *D gf180mcu_fd_sc_mcu7t5v0__invz_4
*I *661:Z O *D gf180mcu_fd_sc_mcu7t5v0__clkbuf_1
*CAP
1 *646:EN 0.000201205
2 *661:Z 0.000201205
3 *646:EN *858:I 0.000351727
4 *646:EN *871:I 0.000623806
5 *646:EN *99:20 5.06086e-05
6 *305:I *646:EN 1.33034e-05
*RES
1 *661:Z *646:EN 20.97 
*END

*D_NET *98 0.0035917
*CONN
*I *648:E I *D gf180mcu_fd_sc_mcu7t5v0__latrnq_1
*I *652:E I *D gf180mcu_fd_sc_mcu7t5v0__latrnq_1
*I *662:Z O *D gf180mcu_fd_sc_mcu7t5v0__xor2_1
*CAP
1 *648:E 0
2 *652:E 0.000159875
3 *662:Z 0.000302604
4 *98:10 0.000462478
5 *652:E *864:I 0.000797052
6 *98:10 *685:A1 7.57964e-05
7 *98:10 *864:I 0.000583059
8 *98:10 *99:20 1.38609e-05
9 *307:I *98:10 0.000467288
10 *650:I *652:E 4.80371e-05
11 *652:RN *652:E 0.000283695
12 *660:I *652:E 0.00022939
13 *660:I *98:10 8.25538e-05
14 *671:D *98:10 2.70026e-05
15 *25:17 *98:10 5.90118e-05
16 *91:10 *98:10 0
*RES
1 *662:Z *98:10 12.6 
2 *98:10 *652:E 11.88 
3 *98:10 *648:E 9 
*END

*D_NET *99 0.0109101
*CONN
*I *664:I I *D gf180mcu_fd_sc_mcu7t5v0__clkbuf_2
*I *643:ZN O *D gf180mcu_fd_sc_mcu7t5v0__invz_2
*I *731:A1 I *D gf180mcu_fd_sc_mcu7t5v0__xor2_1
*I *640:I I *D gf180mcu_fd_sc_mcu7t5v0__clkbuf_2
*I *645:ZN O *D gf180mcu_fd_sc_mcu7t5v0__invz_8
*CAP
1 *664:I 0.000128116
2 *643:ZN 0.000313281
3 *731:A1 0.000858184
4 *640:I 0
5 *645:ZN 0.000345709
6 *99:20 0.00220227
7 *99:10 0.00187496
8 *664:I *672:I 1.7611e-05
9 *664:I *113:10 7.84041e-05
10 *731:A1 *701:A1 0
11 *731:A1 *754:A1 0.00112957
12 *731:A1 *837:I 0.000349899
13 *731:A1 *143:16 6.40664e-06
14 *99:10 *680:I 0
15 *99:10 *856:EN 0.00117149
16 *99:10 *868:I 0.000515921
17 *99:20 *662:A1 6.06287e-05
18 *99:20 *662:A2 6.71977e-05
19 *99:20 *671:E 0
20 *99:20 *685:A1 0.000148149
21 *99:20 *694:E 0
22 *99:20 *698:E 0
23 *99:20 *837:I 2.40933e-06
24 *99:20 *856:EN 0.000276888
25 *99:20 *868:I 2.32816e-05
26 *99:20 *101:34 0
27 *641:I *643:ZN 3.55118e-05
28 *643:I *643:ZN 9.16808e-05
29 *643:I *99:20 0.000219086
30 *644:EN *99:20 3.12377e-05
31 *644:ZN *99:20 8.54511e-06
32 *645:EN *643:ZN 2.40933e-06
33 *646:EN *99:20 5.06086e-05
34 *647:I *99:20 0.000310209
35 *698:D *731:A1 0.000210974
36 *698:RN *731:A1 5.41397e-05
37 *708:A1 *643:ZN 5.03133e-05
38 *755:I *731:A1 0.000130625
39 *26:13 *99:20 1.40829e-05
40 *56:14 *731:A1 0.000116482
41 *56:22 *731:A1 0
42 *98:10 *99:20 1.38609e-05
*RES
1 *645:ZN *99:10 12.78 
2 *99:10 *99:20 13.68 
3 *99:20 *640:I 4.5 
4 *99:20 *731:A1 20.88 
5 *99:10 *643:ZN 11.16 
6 *645:ZN *664:I 9.9 
*END

*D_NET *100 0.00117643
*CONN
*I *662:A2 I *D gf180mcu_fd_sc_mcu7t5v0__xor2_1
*I *640:Z O *D gf180mcu_fd_sc_mcu7t5v0__clkbuf_2
*CAP
1 *662:A2 0.000245205
2 *640:Z 0.000245205
3 *662:A2 *685:A1 0.00042307
4 *307:I *662:A2 0.000195749
5 *99:20 *662:A2 6.71977e-05
*RES
1 *640:Z *662:A2 11.43 
*END

*D_NET *101 0.0107065
*CONN
*I *662:A1 I *D gf180mcu_fd_sc_mcu7t5v0__xor2_1
*I *829:I I *D gf180mcu_fd_sc_mcu7t5v0__clkbuf_2
*I *876:I I *D gf180mcu_fd_sc_mcu7t5v0__clkbuf_2
*I *824:I I *D gf180mcu_fd_sc_mcu7t5v0__clkinv_2
*I *874:Z O *D gf180mcu_fd_sc_mcu7t5v0__and2_2
*CAP
1 *662:A1 0.000123973
2 *829:I 6.28936e-05
3 *876:I 0
4 *824:I 0.000441894
5 *874:Z 0.000171459
6 *101:34 0.00124045
7 *101:14 0.000960889
8 *101:8 0.00174404
9 *662:A1 *685:A1 0.000158788
10 *662:A1 *123:10 2.70125e-05
11 *824:I *879:EN 1.47139e-05
12 *824:I *888:I 4.34708e-05
13 *829:I *123:10 0.000204537
14 *101:8 *800:A1 1.71254e-05
15 *101:14 *823:A1 0.000236737
16 *101:14 *823:A2 5.53346e-05
17 *101:34 *757:I 2.32439e-05
18 *101:34 *760:EN 2.30981e-05
19 *101:34 *761:I 0.000350227
20 *101:34 *762:I 0.000354728
21 *101:34 *832:I 0
22 *101:34 *207:8 3.98088e-05
23 *307:I *101:34 0.000284768
24 *616:A1 *101:8 0.000162001
25 *616:A1 *101:14 0.000162001
26 *649:I *101:14 0.000169515
27 *650:I *101:14 0
28 *755:I *101:34 2.99208e-05
29 *5:27 *101:8 3.19452e-05
30 *19:13 *824:I 2.89427e-06
31 *27:21 *662:A1 0.000471642
32 *27:21 *829:I 0.000692382
33 *28:13 *662:A1 5.34388e-05
34 *30:29 *824:I 0
35 *30:29 *101:14 0.00174591
36 *30:29 *101:34 0.000303036
37 *53:10 *101:34 5.56123e-05
38 *53:108 *824:I 4.30561e-05
39 *53:108 *101:14 0
40 *53:121 *824:I 1.67605e-05
41 *56:20 *101:8 0
42 *56:22 *101:34 0.000126581
43 *99:20 *662:A1 6.06287e-05
44 *99:20 *101:34 0
*RES
1 *874:Z *101:8 10.53 
2 *101:8 *101:14 10.98 
3 *101:14 *824:I 7.56 
4 *101:14 *876:I 4.5 
5 *101:8 *101:34 18.45 
6 *101:34 *829:I 10.71 
7 *101:34 *662:A1 10.8 
*END

*D_NET *102 0.00475581
*CONN
*I *646:I I *D gf180mcu_fd_sc_mcu7t5v0__invz_4
*I *642:I I *D gf180mcu_fd_sc_mcu7t5v0__clkbuf_1
*I *645:I I *D gf180mcu_fd_sc_mcu7t5v0__invz_8
*I *641:Z O *D gf180mcu_fd_sc_mcu7t5v0__clkbuf_2
*CAP
1 *646:I 0
2 *642:I 7.06363e-05
3 *645:I 0.000384261
4 *641:Z 0.000222793
5 *102:20 0.000232105
6 *642:I *860:I 0.00177564
7 *642:I *871:I 0.000115487
8 *644:I *642:I 0.00150705
9 *644:I *102:20 9.84908e-05
10 *647:I *102:20 0.000162123
11 *708:A1 *645:I 0.000135136
12 *708:A1 *102:20 5.20918e-05
*RES
1 *641:Z *645:I 10.44 
2 *645:I *102:20 5.85 
3 *102:20 *642:I 18.09 
4 *102:20 *646:I 4.5 
*END

*D_NET *103 0.00150353
*CONN
*I *667:I I *D gf180mcu_fd_sc_mcu7t5v0__invz_2
*I *665:Z O *D gf180mcu_fd_sc_mcu7t5v0__clkbuf_1
*CAP
1 *667:I 0.000707112
2 *665:Z 0.000707112
3 *667:I *677:I 3.65882e-05
4 *667:I *678:A1 2.29997e-05
5 *667:I *684:I 8.68281e-06
6 *667:I *856:EN 5.97457e-06
7 *667:I *271:26 1.50596e-05
*RES
1 *665:Z *667:I 13.5 
*END

*D_NET *104 0.0028207
*CONN
*I *670:I I *D gf180mcu_fd_sc_mcu7t5v0__clkinv_2
*I *667:ZN O *D gf180mcu_fd_sc_mcu7t5v0__invz_2
*I *669:ZN O *D gf180mcu_fd_sc_mcu7t5v0__invz_4
*CAP
1 *670:I 0.000205034
2 *667:ZN 0.000136042
3 *669:ZN 0.000107791
4 *104:10 0.000448866
5 *667:ZN *669:EN 0
6 *670:I *665:I 9.04462e-05
7 *670:I *669:EN 8.817e-05
8 *670:I *858:I 2.89685e-05
9 *670:I *868:I 4.46396e-05
10 *670:I *871:I 0.000808703
11 *104:10 *668:EN 1.56779e-05
12 *104:10 *858:I 0.000188208
13 *104:10 *871:I 0.000658151
*RES
1 *669:ZN *104:10 10.98 
2 *104:10 *667:ZN 9.63 
3 *104:10 *670:I 11.52 
*END

*D_NET *105 0.00214102
*CONN
*I *666:I I *D gf180mcu_fd_sc_mcu7t5v0__invz_2
*I *670:ZN O *D gf180mcu_fd_sc_mcu7t5v0__clkinv_2
*CAP
1 *666:I 0.000282067
2 *670:ZN 0.000282067
3 *666:I *668:I 0
4 *666:I *673:I 0.000558344
5 *666:I *857:EN 0.000889456
6 *666:I *864:I 0.000129087
*RES
1 *670:ZN *666:I 21.51 
*END

*D_NET *106 0.00283485
*CONN
*I *674:A1 I *D gf180mcu_fd_sc_mcu7t5v0__or2_2
*I *673:Z O *D gf180mcu_fd_sc_mcu7t5v0__clkbuf_1
*CAP
1 *674:A1 0.000720696
2 *673:Z 0.000720696
3 *674:A1 *666:ZN 0
4 *674:A1 *687:I 0
5 *674:A1 *691:I 0
6 *674:A1 *692:I 0
7 *674:A1 *702:I 0
8 *674:A1 *704:I 3.01487e-05
9 *674:A1 *855:I 7.191e-07
10 *674:A1 *121:21 0
11 *674:A1 *145:8 1.86887e-06
12 *674:A1 *272:18 0.00136072
*RES
1 *673:Z *674:A1 24.03 
*END

*D_NET *107 0.00336719
*CONN
*I *678:A1 I *D gf180mcu_fd_sc_mcu7t5v0__or2_2
*I *677:Z O *D gf180mcu_fd_sc_mcu7t5v0__clkbuf_1
*CAP
1 *678:A1 0.000504109
2 *677:Z 0.000504109
3 *678:A1 *665:I 3.73774e-06
4 *678:A1 *667:EN 5.97457e-06
5 *678:A1 *668:EN 2.33065e-05
6 *678:A1 *677:I 7.7248e-05
7 *678:A1 *678:A2 2.8764e-06
8 *678:A1 *854:I 0.00136593
9 *678:A1 *856:EN 0.000117315
10 *678:A1 *271:26 0.000739587
11 *667:I *678:A1 2.29997e-05
*RES
1 *677:Z *678:A1 23.4 
*END

*D_NET *108 0.0016986
*CONN
*I *666:EN I *D gf180mcu_fd_sc_mcu7t5v0__invz_2
*I *674:Z O *D gf180mcu_fd_sc_mcu7t5v0__or2_2
*CAP
1 *666:EN 0.00025498
2 *674:Z 0.00025498
3 *666:EN *668:EN 0.000503973
4 *666:EN *674:A2 0.000684671
5 *666:EN *692:EN 0
6 *666:EN *697:A1 0
*RES
1 *674:Z *666:EN 11.97 
*END

*D_NET *109 0.000863407
*CONN
*I *667:EN I *D gf180mcu_fd_sc_mcu7t5v0__invz_2
*I *678:Z O *D gf180mcu_fd_sc_mcu7t5v0__or2_2
*CAP
1 *667:EN 0.000308694
2 *678:Z 0.000308694
3 *667:EN *668:EN 0.000123271
4 *667:EN *672:I 1.07374e-05
5 *667:EN *678:A2 0.000105311
6 *667:EN *113:10 7.25163e-07
7 *678:A1 *667:EN 5.97457e-06
*RES
1 *678:Z *667:EN 11.34 
*END

*D_NET *110 0.00447114
*CONN
*I *673:I I *D gf180mcu_fd_sc_mcu7t5v0__clkbuf_1
*I *672:Z O *D gf180mcu_fd_sc_mcu7t5v0__clkbuf_1
*CAP
1 *673:I 0.000265394
2 *672:Z 0.000265394
3 *673:I *668:EN 0.000794549
4 *673:I *672:I 0.000462073
5 *673:I *857:EN 0.000479178
6 *673:I *864:I 0.00164621
7 *666:I *673:I 0.000558344
*RES
1 *672:Z *673:I 24.66 
*END

*D_NET *111 0.00453934
*CONN
*I *677:I I *D gf180mcu_fd_sc_mcu7t5v0__clkbuf_1
*I *676:Z O *D gf180mcu_fd_sc_mcu7t5v0__clkbuf_1
*CAP
1 *677:I 0.000942286
2 *676:Z 0.000942286
3 *677:I *665:I 8.68415e-05
4 *677:I *681:I 0.00120256
5 *677:I *683:I 0.000325383
6 *677:I *684:I 3.12451e-05
7 *677:I *854:I 0.000165108
8 *677:I *856:EN 2.1573e-06
9 *677:I *271:26 0.000727637
10 *667:I *677:I 3.65882e-05
11 *678:A1 *677:I 7.7248e-05
*RES
1 *676:Z *677:I 28.08 
*END

*D_NET *112 0.00494274
*CONN
*I *674:A2 I *D gf180mcu_fd_sc_mcu7t5v0__or2_2
*I *679:I I *D gf180mcu_fd_sc_mcu7t5v0__inv_1
*I *672:I I *D gf180mcu_fd_sc_mcu7t5v0__clkbuf_1
*I *671:Q O *D gf180mcu_fd_sc_mcu7t5v0__latrnq_1
*CAP
1 *674:A2 0.000274362
2 *679:I 0
3 *672:I 0.000421047
4 *671:Q 0.000262069
5 *112:16 0.000464575
6 *112:12 0.000579959
7 *672:I *668:EN 2.36813e-05
8 *672:I *113:10 0
9 *674:A2 *668:I 2.03826e-05
10 *674:A2 *687:I 0
11 *674:A2 *864:I 0.000268422
12 *674:A2 *121:25 0
13 *112:12 *685:A2 6.15984e-05
14 *112:12 *696:I 0.000162562
15 *112:12 *754:A1 0
16 *112:12 *864:I 0.00119485
17 *112:12 *121:25 0
18 *112:16 *668:EN 3.12451e-05
19 *112:16 *697:A1 2.89427e-06
20 *664:I *672:I 1.7611e-05
21 *666:EN *674:A2 0.000684671
22 *667:EN *672:I 1.07374e-05
23 *673:I *672:I 0.000462073
*RES
1 *671:Q *112:12 12.69 
2 *112:12 *112:16 4.77 
3 *112:16 *672:I 7.65 
4 *112:16 *679:I 4.5 
5 *112:12 *674:A2 11.7 
*END

*D_NET *113 0.00497385
*CONN
*I *678:A2 I *D gf180mcu_fd_sc_mcu7t5v0__or2_2
*I *682:I I *D gf180mcu_fd_sc_mcu7t5v0__inv_1
*I *676:I I *D gf180mcu_fd_sc_mcu7t5v0__clkbuf_1
*I *675:Q O *D gf180mcu_fd_sc_mcu7t5v0__latrnq_1
*CAP
1 *678:A2 0.000165816
2 *682:I 4.96042e-05
3 *676:I 8.1223e-05
4 *675:Q 0.000436843
5 *113:12 0.000143838
6 *113:10 0.00061567
7 *676:I *854:I 0.000604092
8 *676:I *271:26 0.000604092
9 *678:A2 *854:I 0.000356703
10 *678:A2 *271:26 0.000385445
11 *682:I *680:I 2.14664e-05
12 *113:10 *680:I 0.00041701
13 *113:10 *696:I 3.22122e-05
14 *113:12 *854:I 0.000424464
15 *113:12 *271:26 0.000448058
16 *664:I *113:10 7.84041e-05
17 *667:EN *678:A2 0.000105311
18 *667:EN *113:10 7.25163e-07
19 *672:I *113:10 0
20 *678:A1 *678:A2 2.8764e-06
21 *708:A1 *676:I 0
*RES
1 *675:Q *113:10 12.42 
2 *113:10 *113:12 1.17 
3 *113:12 *676:I 10.98 
4 *113:12 *682:I 9.45 
5 *113:10 *678:A2 11.25 
*END

*D_NET *114 0.00258636
*CONN
*I *680:I I *D gf180mcu_fd_sc_mcu7t5v0__clkbuf_1
*I *679:ZN O *D gf180mcu_fd_sc_mcu7t5v0__inv_1
*CAP
1 *680:I 0.000577999
2 *679:ZN 0.000577999
3 *680:I *857:EN 0.000674413
4 *680:I *864:I 0.000317476
5 *308:I *680:I 0
6 *682:I *680:I 2.14664e-05
7 *99:10 *680:I 0
8 *113:10 *680:I 0.00041701
*RES
1 *679:ZN *680:I 23.4 
*END

*D_NET *115 0.00446274
*CONN
*I *683:I I *D gf180mcu_fd_sc_mcu7t5v0__clkbuf_1
*I *682:ZN O *D gf180mcu_fd_sc_mcu7t5v0__inv_1
*CAP
1 *683:I 0.000137383
2 *682:ZN 0.000137383
3 *683:I *681:I 0.00119229
4 *683:I *854:I 0.0022608
5 *683:I *271:26 0.000409501
6 *677:I *683:I 0.000325383
*RES
1 *682:ZN *683:I 23.85 
*END

*D_NET *116 0.00240269
*CONN
*I *681:I I *D gf180mcu_fd_sc_mcu7t5v0__clkbuf_1
*I *680:Z O *D gf180mcu_fd_sc_mcu7t5v0__clkbuf_1
*CAP
1 *681:I 3.91921e-06
2 *680:Z 3.91921e-06
3 *677:I *681:I 0.00120256
4 *683:I *681:I 0.00119229
*RES
1 *680:Z *681:I 20.97 
*END

*D_NET *117 0.00216915
*CONN
*I *684:I I *D gf180mcu_fd_sc_mcu7t5v0__clkbuf_1
*I *683:Z O *D gf180mcu_fd_sc_mcu7t5v0__clkbuf_1
*CAP
1 *684:I 0.000230544
2 *683:Z 0.000230544
3 *684:I *665:I 3.08083e-05
4 *684:I *854:I 0.000645317
5 *684:I *856:EN 0.000346684
6 *684:I *861:I 0
7 *684:I *271:26 0.00064533
8 *667:I *684:I 8.68281e-06
9 *677:I *684:I 3.12451e-05
*RES
1 *683:Z *684:I 21.33 
*END

*D_NET *118 0.00318491
*CONN
*I *668:EN I *D gf180mcu_fd_sc_mcu7t5v0__invz_8
*I *681:Z O *D gf180mcu_fd_sc_mcu7t5v0__clkbuf_1
*CAP
1 *668:EN 0.000824772
2 *681:Z 0.000824772
3 *668:EN *668:I 0
4 *668:EN *697:A1 1.96635e-05
5 *666:EN *668:EN 0.000503973
6 *667:EN *668:EN 0.000123271
7 *672:I *668:EN 2.36813e-05
8 *673:I *668:EN 0.000794549
9 *678:A1 *668:EN 2.33065e-05
10 *104:10 *668:EN 1.56779e-05
11 *112:16 *668:EN 3.12451e-05
*RES
1 *681:Z *668:EN 15.66 
*END

*D_NET *119 0.000997922
*CONN
*I *669:EN I *D gf180mcu_fd_sc_mcu7t5v0__invz_4
*I *684:Z O *D gf180mcu_fd_sc_mcu7t5v0__clkbuf_1
*CAP
1 *669:EN 0.000232385
2 *684:Z 0.000232385
3 *669:EN *665:I 2.88469e-05
4 *669:EN *868:I 0.000390584
5 *669:EN *871:I 2.55518e-05
6 *667:ZN *669:EN 0
7 *670:I *669:EN 8.817e-05
*RES
1 *684:Z *669:EN 19.98 
*END

*D_NET *120 0.00130283
*CONN
*I *675:E I *D gf180mcu_fd_sc_mcu7t5v0__latrnq_1
*I *671:E I *D gf180mcu_fd_sc_mcu7t5v0__latrnq_1
*I *685:Z O *D gf180mcu_fd_sc_mcu7t5v0__xor2_1
*CAP
1 *675:E 9.99774e-05
2 *671:E 0.000165029
3 *685:Z 6.50519e-05
4 *671:E *685:A2 0.00034977
5 *671:D *671:E 0.000440217
6 *694:D *675:E 0
7 *708:A1 *675:E 0.000127736
8 *53:254 *675:E 5.50498e-05
9 *99:20 *671:E 0
*RES
1 *685:Z *671:E 19.26 
2 *671:E *675:E 10.08 
*END

*D_NET *121 0.00953694
*CONN
*I *687:I I *D gf180mcu_fd_sc_mcu7t5v0__clkbuf_2
*I *663:I I *D gf180mcu_fd_sc_mcu7t5v0__clkbuf_2
*I *754:A1 I *D gf180mcu_fd_sc_mcu7t5v0__xor2_1
*I *666:ZN O *D gf180mcu_fd_sc_mcu7t5v0__invz_2
*I *668:ZN O *D gf180mcu_fd_sc_mcu7t5v0__invz_8
*CAP
1 *687:I 0.000205946
2 *663:I 6.22625e-05
3 *754:A1 0.000932254
4 *666:ZN 0.000108906
5 *668:ZN 0.000225596
6 *121:25 0.00138201
7 *121:21 0.000768272
8 *121:10 0.000509332
9 *663:I *696:I 0
10 *663:I *697:A1 3.07932e-05
11 *666:ZN *668:I 2.99208e-05
12 *687:I *145:8 1.86887e-06
13 *754:A1 *685:A2 0.000349088
14 *754:A1 *696:I 7.08928e-05
15 *754:A1 *705:I 6.71671e-05
16 *754:A1 *777:A1 0.00136311
17 *754:A1 *839:A1 5.83232e-05
18 *754:A1 *853:I 0.000314103
19 *754:A1 *134:8 0
20 *754:A1 *135:8 0
21 *754:A1 *143:16 3.98088e-05
22 *121:10 *853:I 0
23 *121:10 *864:I 6.95385e-05
24 *121:21 *668:I 2.38983e-05
25 *121:25 *853:I 0.00045688
26 *121:25 *864:I 0
27 *674:A1 *666:ZN 0
28 *674:A1 *687:I 0
29 *674:A1 *121:21 0
30 *674:A2 *687:I 0
31 *674:A2 *121:25 0
32 *694:RN *754:A1 0.000111656
33 *731:A1 *754:A1 0.00112957
34 *779:I *754:A1 3.99224e-05
35 *28:13 *754:A1 0.000602608
36 *53:16 *754:A1 0.000130375
37 *53:252 *754:A1 0.000283695
38 *56:14 *754:A1 0.000169141
39 *112:12 *754:A1 0
40 *112:12 *121:25 0
*RES
1 *668:ZN *121:10 14.85 
2 *121:10 *666:ZN 5.13 
3 *121:10 *121:21 1.26 
4 *121:21 *121:25 8.37 
5 *121:25 *754:A1 22.32 
6 *121:25 *663:I 9.45 
7 *121:21 *687:I 5.49 
*END

*D_NET *122 0.00254908
*CONN
*I *685:A2 I *D gf180mcu_fd_sc_mcu7t5v0__xor2_1
*I *663:Z O *D gf180mcu_fd_sc_mcu7t5v0__clkbuf_2
*CAP
1 *685:A2 0.000337514
2 *663:Z 0.000337514
3 *685:A2 *839:A1 0.000114302
4 *685:A2 *853:I 4.93782e-06
5 *685:A2 *864:I 7.2219e-05
6 *671:D *685:A2 4.7572e-05
7 *671:E *685:A2 0.00034977
8 *671:RN *685:A2 0.000519973
9 *754:A1 *685:A2 0.000349088
10 *26:13 *685:A2 0.000354587
11 *112:12 *685:A2 6.15984e-05
*RES
1 *663:Z *685:A2 23.13 
*END

*D_NET *123 0.00757056
*CONN
*I *685:A1 I *D gf180mcu_fd_sc_mcu7t5v0__xor2_1
*I *828:I I *D gf180mcu_fd_sc_mcu7t5v0__clkbuf_2
*I *831:ZN O *D gf180mcu_fd_sc_mcu7t5v0__invz_2
*I *852:I I *D gf180mcu_fd_sc_mcu7t5v0__clkbuf_2
*I *833:ZN O *D gf180mcu_fd_sc_mcu7t5v0__invz_8
*CAP
1 *685:A1 0.000278716
2 *828:I 0.000479839
3 *831:ZN 5.91161e-05
4 *852:I 0.000182631
5 *833:ZN 0.00055583
6 *123:12 0.000316671
7 *123:10 0.000831877
8 *828:I *765:I 0
9 *828:I *831:I 3.01487e-05
10 *828:I *832:EN 0.000166342
11 *828:I *833:EN 1.56942e-05
12 *828:I *834:EN 0.000165565
13 *828:I *835:I 9.92342e-05
14 *828:I *837:I 0.000229402
15 *828:I *848:I 0.000125605
16 *828:I *850:A2 0.000123215
17 *831:ZN *267:8 1.86887e-06
18 *831:ZN *272:18 0.000510653
19 *852:I *833:EN 4.34834e-05
20 *852:I *834:EN 0.000178842
21 *123:10 *831:I 0.000137825
22 *123:12 *831:I 0.000223398
23 *123:12 *833:EN 9.53567e-06
24 *123:12 *834:EN 0.000132459
25 *307:I *685:A1 5.23429e-06
26 *652:D *828:I 7.191e-07
27 *652:D *831:ZN 9.04462e-05
28 *662:A1 *685:A1 0.000158788
29 *662:A1 *123:10 2.70125e-05
30 *662:A2 *685:A1 0.00042307
31 *755:I *685:A1 0
32 *829:I *123:10 0.000204537
33 *27:21 *831:ZN 0.000510653
34 *27:21 *123:10 0.000144358
35 *28:13 *123:10 0.000883846
36 *98:10 *685:A1 7.57964e-05
37 *99:20 *685:A1 0.000148149
*RES
1 *833:ZN *123:10 18.63 
2 *123:10 *123:12 0.99 
3 *123:12 *852:I 5.85 
4 *123:12 *831:ZN 15.12 
5 *123:10 *828:I 17.91 
6 *833:ZN *685:A1 11.7 
*END

*D_NET *124 0.00623296
*CONN
*I *665:I I *D gf180mcu_fd_sc_mcu7t5v0__clkbuf_1
*I *669:I I *D gf180mcu_fd_sc_mcu7t5v0__invz_4
*I *668:I I *D gf180mcu_fd_sc_mcu7t5v0__invz_8
*I *664:Z O *D gf180mcu_fd_sc_mcu7t5v0__clkbuf_2
*CAP
1 *665:I 0.000429841
2 *669:I 0
3 *668:I 0.000446376
4 *664:Z 1.99871e-05
5 *124:19 0.000462477
6 *124:8 0.000499
7 *665:I *856:EN 0.000131469
8 *665:I *857:EN 5.60661e-06
9 *665:I *860:I 0.000765237
10 *665:I *871:I 0.000724302
11 *124:8 *860:I 0.000737008
12 *124:8 *871:I 0.000734448
13 *124:19 *860:I 0.000495534
14 *124:19 *871:I 0.000466792
15 *666:I *668:I 0
16 *666:ZN *668:I 2.99208e-05
17 *668:EN *668:I 0
18 *669:EN *665:I 2.88469e-05
19 *670:I *665:I 9.04462e-05
20 *674:A2 *668:I 2.03826e-05
21 *677:I *665:I 8.68415e-05
22 *678:A1 *665:I 3.73774e-06
23 *684:I *665:I 3.08083e-05
24 *121:21 *668:I 2.38983e-05
*RES
1 *664:Z *124:8 10.89 
2 *124:8 *668:I 11.61 
3 *124:8 *124:19 1.35 
4 *124:19 *669:I 9 
5 *124:19 *665:I 13.68 
*END

*D_NET *125 0.00147728
*CONN
*I *690:I I *D gf180mcu_fd_sc_mcu7t5v0__invz_2
*I *688:Z O *D gf180mcu_fd_sc_mcu7t5v0__clkbuf_1
*CAP
1 *690:I 0.000502655
2 *688:Z 0.000502655
3 *690:I *689:I 0.00034213
4 *690:I *690:ZN 8.38402e-06
5 *690:I *692:I 6.31783e-05
6 *690:I *693:I 2.11204e-05
7 *690:I *703:I 3.71528e-05
*RES
1 *688:Z *690:I 21.6 
*END

*D_NET *126 0.0022985
*CONN
*I *693:I I *D gf180mcu_fd_sc_mcu7t5v0__clkinv_2
*I *690:ZN O *D gf180mcu_fd_sc_mcu7t5v0__invz_2
*I *692:ZN O *D gf180mcu_fd_sc_mcu7t5v0__invz_4
*CAP
1 *693:I 5.71575e-05
2 *690:ZN 0.000122221
3 *692:ZN 0.000208663
4 *126:8 0.000388042
5 *690:ZN *689:I 0.000492652
6 *690:ZN *703:I 0.000534042
7 *690:ZN *855:I 1.5431e-05
8 *693:I *689:I 0.00028126
9 *126:8 *688:I 0
10 *126:8 *689:I 0
11 *126:8 *704:I 0.000169524
12 *690:I *690:ZN 8.38402e-06
13 *690:I *693:I 2.11204e-05
*RES
1 *692:ZN *126:8 10.35 
2 *126:8 *690:ZN 10.89 
3 *126:8 *693:I 9.81 
*END

*D_NET *127 0.00271348
*CONN
*I *689:I I *D gf180mcu_fd_sc_mcu7t5v0__invz_2
*I *693:ZN O *D gf180mcu_fd_sc_mcu7t5v0__clkinv_2
*CAP
1 *689:I 0.000622606
2 *693:ZN 0.000622606
3 *689:I *688:I 2.31089e-05
4 *689:I *691:EN 0
5 *689:I *691:I 1.17821e-05
6 *689:I *692:I 4.57437e-05
7 *689:I *704:I 5.60661e-06
8 *689:I *710:I 8.32981e-05
9 *689:I *714:I 0
10 *689:I *855:I 0.000138204
11 *689:I *143:46 4.44868e-05
12 *690:I *689:I 0.00034213
13 *690:ZN *689:I 0.000492652
14 *693:I *689:I 0.00028126
15 *126:8 *689:I 0
*RES
1 *693:ZN *689:I 23.94 
*END

*D_NET *128 0.00141304
*CONN
*I *697:A1 I *D gf180mcu_fd_sc_mcu7t5v0__or2_2
*I *696:Z O *D gf180mcu_fd_sc_mcu7t5v0__clkbuf_1
*CAP
1 *697:A1 0.000491372
2 *696:Z 0.000491372
3 *697:A1 *692:EN 0.000234097
4 *697:A1 *707:I 0.000127736
5 *663:I *697:A1 3.07932e-05
6 *666:EN *697:A1 0
7 *668:EN *697:A1 1.96635e-05
8 *27:21 *697:A1 1.51153e-05
9 *112:16 *697:A1 2.89427e-06
*RES
1 *696:Z *697:A1 12.69 
*END

*D_NET *129 0.00126294
*CONN
*I *701:A1 I *D gf180mcu_fd_sc_mcu7t5v0__or2_2
*I *700:Z O *D gf180mcu_fd_sc_mcu7t5v0__clkbuf_1
*CAP
1 *701:A1 0.000269314
2 *700:Z 0.000269314
3 *701:A1 *701:A2 9.5189e-05
4 *701:A1 *705:I 6.4558e-06
5 *701:A1 *727:I 0.000380315
6 *701:A1 *135:8 1.98195e-05
7 *701:A1 *135:23 0.000175038
8 *731:A1 *701:A1 0
9 *27:21 *701:A1 4.7492e-05
*RES
1 *700:Z *701:A1 20.52 
*END

*D_NET *130 0.00156759
*CONN
*I *689:EN I *D gf180mcu_fd_sc_mcu7t5v0__invz_2
*I *697:Z O *D gf180mcu_fd_sc_mcu7t5v0__or2_2
*CAP
1 *689:EN 0.000554664
2 *697:Z 0.000554664
3 *689:EN *690:EN 3.66958e-05
4 *689:EN *692:EN 6.51218e-05
5 *689:EN *699:I 0
6 *689:EN *701:A2 9.91104e-05
7 *689:EN *714:EN 0
8 *689:EN *726:I 0.00023506
9 *689:EN *727:I 2.22704e-05
10 *27:21 *689:EN 0
*RES
1 *697:Z *689:EN 13.5 
*END

*D_NET *131 0.00073775
*CONN
*I *690:EN I *D gf180mcu_fd_sc_mcu7t5v0__invz_2
*I *701:Z O *D gf180mcu_fd_sc_mcu7t5v0__or2_2
*CAP
1 *690:EN 0.000132405
2 *701:Z 0.000132405
3 *690:EN *692:EN 0.00037349
4 *690:EN *726:I 6.27543e-05
5 *689:EN *690:EN 3.66958e-05
*RES
1 *701:Z *690:EN 10.62 
*END

*D_NET *132 0.00213918
*CONN
*I *696:I I *D gf180mcu_fd_sc_mcu7t5v0__clkbuf_1
*I *695:Z O *D gf180mcu_fd_sc_mcu7t5v0__clkbuf_1
*CAP
1 *696:I 0.000760116
2 *695:Z 0.000760116
3 *696:I *864:I 0.000296722
4 *696:I *134:8 2.99208e-05
5 *663:I *696:I 0
6 *754:A1 *696:I 7.08928e-05
7 *27:21 *696:I 0
8 *53:252 *696:I 2.40933e-06
9 *53:254 *696:I 2.42267e-05
10 *112:12 *696:I 0.000162562
11 *113:10 *696:I 3.22122e-05
*RES
1 *695:Z *696:I 14.22 
*END

*D_NET *133 0.000376594
*CONN
*I *700:I I *D gf180mcu_fd_sc_mcu7t5v0__clkbuf_1
*I *699:Z O *D gf180mcu_fd_sc_mcu7t5v0__clkbuf_1
*CAP
1 *700:I 0.000104444
2 *699:Z 0.000104444
3 *700:I *705:I 0
4 *700:I *706:I 0.000134297
5 *27:21 *700:I 3.34104e-05
*RES
1 *699:Z *700:I 10.35 
*END

*D_NET *134 0.00393267
*CONN
*I *702:I I *D gf180mcu_fd_sc_mcu7t5v0__inv_1
*I *697:A2 I *D gf180mcu_fd_sc_mcu7t5v0__or2_2
*I *695:I I *D gf180mcu_fd_sc_mcu7t5v0__clkbuf_1
*I *694:Q O *D gf180mcu_fd_sc_mcu7t5v0__latrnq_1
*CAP
1 *702:I 0.000289299
2 *697:A2 0
3 *695:I 7.254e-05
4 *694:Q 0.000107594
5 *134:19 0.000442995
6 *134:8 0.00033383
7 *695:I *855:I 0.000538909
8 *702:I *692:EN 3.07932e-05
9 *702:I *703:I 0.000365445
10 *702:I *855:I 0.000893051
11 *702:I *145:8 0
12 *702:I *272:18 0
13 *134:8 *706:I 3.01487e-05
14 *134:19 *855:I 0.000653857
15 *134:19 *272:18 0
16 *674:A1 *702:I 0
17 *696:I *134:8 2.99208e-05
18 *754:A1 *134:8 0
19 *27:21 *695:I 4.25098e-05
20 *27:21 *134:8 8.61061e-05
21 *27:21 *134:19 1.56674e-05
*RES
1 *694:Q *134:8 9.99 
2 *134:8 *695:I 10.35 
3 *134:8 *134:19 1.71 
4 *134:19 *697:A2 9 
5 *134:19 *702:I 12.42 
*END

*D_NET *135 0.0026173
*CONN
*I *701:A2 I *D gf180mcu_fd_sc_mcu7t5v0__or2_2
*I *699:I I *D gf180mcu_fd_sc_mcu7t5v0__clkbuf_1
*I *705:I I *D gf180mcu_fd_sc_mcu7t5v0__inv_1
*I *698:Q O *D gf180mcu_fd_sc_mcu7t5v0__latrnq_1
*CAP
1 *701:A2 8.73573e-05
2 *699:I 3.74941e-05
3 *705:I 0.000201383
4 *698:Q 4.35783e-05
5 *135:23 0.00030473
6 *135:8 0.000424839
7 *699:I *726:I 8.65898e-05
8 *699:I *727:I 1.34934e-05
9 *701:A2 *726:I 0.000301265
10 *701:A2 *727:I 0.000240877
11 *701:A2 *143:16 6.84426e-06
12 *705:I *706:I 1.61174e-05
13 *705:I *143:16 4.79098e-05
14 *135:23 *143:16 0.00011555
15 *689:EN *699:I 0
16 *689:EN *701:A2 9.91104e-05
17 *700:I *705:I 0
18 *701:A1 *701:A2 9.5189e-05
19 *701:A1 *705:I 6.4558e-06
20 *701:A1 *135:8 1.98195e-05
21 *701:A1 *135:23 0.000175038
22 *754:A1 *705:I 6.71671e-05
23 *754:A1 *135:8 0
24 *27:21 *699:I 0.000226494
*RES
1 *698:Q *135:8 9.27 
2 *135:8 *705:I 10.71 
3 *135:8 *135:23 1.71 
4 *135:23 *699:I 9.63 
5 *135:23 *701:A2 10.62 
*END

*D_NET *136 0.00245008
*CONN
*I *703:I I *D gf180mcu_fd_sc_mcu7t5v0__clkbuf_1
*I *702:ZN O *D gf180mcu_fd_sc_mcu7t5v0__inv_1
*CAP
1 *703:I 0.000515344
2 *702:ZN 0.000515344
3 *703:I *692:EN 5.32818e-05
4 *703:I *855:I 5.11919e-06
5 *703:I *143:8 0.000236727
6 *703:I *143:16 0.000166798
7 *703:I *143:46 2.08301e-05
8 *703:I *145:8 0
9 *690:I *703:I 3.71528e-05
10 *690:ZN *703:I 0.000534042
11 *702:I *703:I 0.000365445
*RES
1 *702:ZN *703:I 22.68 
*END

*D_NET *137 0.000950902
*CONN
*I *706:I I *D gf180mcu_fd_sc_mcu7t5v0__clkbuf_1
*I *705:ZN O *D gf180mcu_fd_sc_mcu7t5v0__inv_1
*CAP
1 *706:I 0.000290192
2 *705:ZN 0.000290192
3 *706:I *143:16 0.000105575
4 *700:I *706:I 0.000134297
5 *705:I *706:I 1.61174e-05
6 *27:21 *706:I 8.43798e-05
7 *134:8 *706:I 3.01487e-05
*RES
1 *705:ZN *706:I 11.52 
*END

*D_NET *138 0.00123577
*CONN
*I *704:I I *D gf180mcu_fd_sc_mcu7t5v0__clkbuf_1
*I *703:Z O *D gf180mcu_fd_sc_mcu7t5v0__clkbuf_1
*CAP
1 *704:I 0.000459721
2 *703:Z 0.000459721
3 *704:I *688:I 0
4 *704:I *855:I 8.36738e-05
5 *704:I *145:8 2.73782e-05
6 *674:A1 *704:I 3.01487e-05
7 *689:I *704:I 5.60661e-06
8 *126:8 *704:I 0.000169524
*RES
1 *703:Z *704:I 12.33 
*END

*D_NET *139 0.000425234
*CONN
*I *707:I I *D gf180mcu_fd_sc_mcu7t5v0__clkbuf_1
*I *706:Z O *D gf180mcu_fd_sc_mcu7t5v0__clkbuf_1
*CAP
1 *707:I 8.10944e-05
2 *706:Z 8.10944e-05
3 *697:A1 *707:I 0.000127736
4 *27:21 *707:I 0.00013531
*RES
1 *706:Z *707:I 10.08 
*END

*D_NET *140 0.00112357
*CONN
*I *691:EN I *D gf180mcu_fd_sc_mcu7t5v0__invz_8
*I *704:Z O *D gf180mcu_fd_sc_mcu7t5v0__clkbuf_1
*CAP
1 *691:EN 0.000501813
2 *704:Z 0.000501813
3 *691:EN *688:I 0
4 *691:EN *691:I 5.39521e-05
5 *691:EN *853:I 5.97802e-05
6 *691:EN *272:18 6.2083e-06
7 *689:I *691:EN 0
*RES
1 *704:Z *691:EN 21.78 
*END

*D_NET *141 0.0021232
*CONN
*I *692:EN I *D gf180mcu_fd_sc_mcu7t5v0__invz_4
*I *707:Z O *D gf180mcu_fd_sc_mcu7t5v0__clkbuf_1
*CAP
1 *692:EN 0.000683211
2 *707:Z 0.000683211
3 *692:EN *143:46 0
4 *666:EN *692:EN 0
5 *689:EN *692:EN 6.51218e-05
6 *690:EN *692:EN 0.00037349
7 *697:A1 *692:EN 0.000234097
8 *702:I *692:EN 3.07932e-05
9 *703:I *692:EN 5.32818e-05
*RES
1 *707:Z *692:EN 14.76 
*END

*D_NET *142 0.00167332
*CONN
*I *698:E I *D gf180mcu_fd_sc_mcu7t5v0__latrnq_1
*I *694:E I *D gf180mcu_fd_sc_mcu7t5v0__latrnq_1
*I *708:Z O *D gf180mcu_fd_sc_mcu7t5v0__xor2_1
*CAP
1 *698:E 0.000207323
2 *694:E 0.000304196
3 *708:Z 2.4585e-05
4 *142:6 0.000536103
5 *694:E *708:A2 2.89427e-06
6 *694:E *839:A1 7.191e-07
7 *698:E *708:A2 6.31783e-05
8 *698:E *777:A2 5.55759e-05
9 *698:E *837:I 0.000428433
10 *698:E *839:A1 2.65444e-06
11 *708:A1 *694:E 4.76605e-05
12 *99:20 *694:E 0
13 *99:20 *698:E 0
*RES
1 *708:Z *142:6 4.77 
2 *142:6 *694:E 6.48 
3 *142:6 *698:E 6.57 
*END

*D_NET *143 0.00909295
*CONN
*I *710:I I *D gf180mcu_fd_sc_mcu7t5v0__clkbuf_2
*I *689:ZN O *D gf180mcu_fd_sc_mcu7t5v0__invz_2
*I *686:I I *D gf180mcu_fd_sc_mcu7t5v0__clkbuf_2
*I *777:A1 I *D gf180mcu_fd_sc_mcu7t5v0__xor2_1
*I *691:ZN O *D gf180mcu_fd_sc_mcu7t5v0__invz_8
*CAP
1 *710:I 0.000296991
2 *689:ZN 0
3 *686:I 0
4 *777:A1 0.000394752
5 *691:ZN 0.000111781
6 *143:46 0.000675973
7 *143:16 0.00104716
8 *143:8 0.00114317
9 *710:I *714:I 4.64581e-05
10 *710:I *155:12 0
11 *143:8 *692:I 0.000425752
12 *143:8 *145:8 1.06178e-05
13 *143:16 *726:I 0.000118285
14 *143:16 *855:I 0.00045566
15 *143:46 *692:I 0.000583517
16 *689:I *710:I 8.32981e-05
17 *689:I *143:46 4.44868e-05
18 *692:EN *143:46 0
19 *694:RN *777:A1 0.000567799
20 *694:RN *143:16 3.22348e-05
21 *701:A2 *143:16 6.84426e-06
22 *703:I *143:8 0.000236727
23 *703:I *143:16 0.000166798
24 *703:I *143:46 2.08301e-05
25 *705:I *143:16 4.79098e-05
26 *706:I *143:16 0.000105575
27 *731:A1 *143:16 6.40664e-06
28 *754:A1 *777:A1 0.00136311
29 *754:A1 *143:16 3.98088e-05
30 *53:10 *777:A1 3.46417e-05
31 *53:16 *777:A1 0.000908459
32 *53:38 *777:A1 2.36152e-06
33 *135:23 *143:16 0.00011555
*RES
1 *691:ZN *143:8 6.3 
2 *143:8 *143:16 15.84 
3 *143:16 *777:A1 18.99 
4 *143:16 *686:I 4.5 
5 *143:8 *143:46 3.51 
6 *143:46 *689:ZN 4.5 
7 *143:46 *710:I 6.75 
*END

*D_NET *144 0.000516871
*CONN
*I *708:A2 I *D gf180mcu_fd_sc_mcu7t5v0__xor2_1
*I *686:Z O *D gf180mcu_fd_sc_mcu7t5v0__clkbuf_2
*CAP
1 *708:A2 0.000135579
2 *686:Z 0.000135579
3 *708:A2 *777:A2 5.30834e-05
4 *708:A2 *839:A1 0.000126556
5 *694:E *708:A2 2.89427e-06
6 *698:E *708:A2 6.31783e-05
*RES
1 *686:Z *708:A2 10.26 
*END

*D_NET *145 0.00471495
*CONN
*I *688:I I *D gf180mcu_fd_sc_mcu7t5v0__clkbuf_1
*I *691:I I *D gf180mcu_fd_sc_mcu7t5v0__invz_8
*I *692:I I *D gf180mcu_fd_sc_mcu7t5v0__invz_4
*I *687:Z O *D gf180mcu_fd_sc_mcu7t5v0__clkbuf_2
*CAP
1 *688:I 0.000393458
2 *691:I 0.00062596
3 *692:I 0.000355722
4 *687:Z 0.000201049
5 *145:8 0.000789272
6 *688:I *855:I 5.60661e-06
7 *691:I *855:I 0.000755935
8 *691:I *272:18 0
9 *692:I *855:I 0.000339179
10 *674:A1 *691:I 0
11 *674:A1 *692:I 0
12 *674:A1 *145:8 1.86887e-06
13 *687:I *145:8 1.86887e-06
14 *689:I *688:I 2.31089e-05
15 *689:I *691:I 1.17821e-05
16 *689:I *692:I 4.57437e-05
17 *690:I *692:I 6.31783e-05
18 *691:EN *688:I 0
19 *691:EN *691:I 5.39521e-05
20 *702:I *145:8 0
21 *703:I *145:8 0
22 *704:I *688:I 0
23 *704:I *145:8 2.73782e-05
24 *126:8 *688:I 0
25 *143:8 *692:I 0.000425752
26 *143:8 *145:8 1.06178e-05
27 *143:46 *692:I 0.000583517
*RES
1 *687:Z *145:8 10.35 
2 *145:8 *692:I 12.87 
3 *145:8 *691:I 11.25 
4 *691:I *688:I 11.43 
*END

*D_NET *146 0.001697
*CONN
*I *713:I I *D gf180mcu_fd_sc_mcu7t5v0__invz_2
*I *711:Z O *D gf180mcu_fd_sc_mcu7t5v0__clkbuf_1
*CAP
1 *713:I 0.000432324
2 *711:Z 0.000432324
3 *713:I *711:I 0.000141012
4 *713:I *713:ZN 0.000112822
5 *713:I *185:10 0.000578516
*RES
1 *711:Z *713:I 13.32 
*END

*D_NET *147 0.00101221
*CONN
*I *713:ZN O *D gf180mcu_fd_sc_mcu7t5v0__invz_2
*I *716:I I *D gf180mcu_fd_sc_mcu7t5v0__clkinv_2
*I *715:ZN O *D gf180mcu_fd_sc_mcu7t5v0__invz_4
*CAP
1 *713:ZN 0.000197867
2 *716:I 0.000251468
3 *715:ZN 0
4 *147:4 0.000449335
5 *713:ZN *711:I 0
6 *716:I *711:I 0
7 *716:I *719:I 7.191e-07
8 *716:I *720:A1 0
9 *713:I *713:ZN 0.000112822
*RES
1 *715:ZN *147:4 4.5 
2 *147:4 *716:I 6.03 
3 *147:4 *713:ZN 6.12 
*END

*D_NET *148 0.0012831
*CONN
*I *712:I I *D gf180mcu_fd_sc_mcu7t5v0__invz_2
*I *716:ZN O *D gf180mcu_fd_sc_mcu7t5v0__clkinv_2
*CAP
1 *712:I 0.000179448
2 *716:ZN 0.000179448
3 *712:I *720:A1 1.54694e-05
4 *712:I *729:I 2.52675e-05
5 *712:I *164:12 0.000835559
6 *5:17 *712:I 4.79098e-05
*RES
1 *716:ZN *712:I 20.25 
*END

*D_NET *149 0.00230127
*CONN
*I *720:A1 I *D gf180mcu_fd_sc_mcu7t5v0__or2_2
*I *719:Z O *D gf180mcu_fd_sc_mcu7t5v0__clkbuf_1
*CAP
1 *720:A1 0.000374829
2 *719:Z 0.000374829
3 *720:A1 *709:I 0.000174497
4 *720:A1 *711:I 6.0012e-06
5 *720:A1 *714:I 0
6 *720:A1 *715:I 3.57113e-05
7 *720:A1 *729:I 2.75776e-05
8 *720:A1 *164:23 0.00029374
9 *712:I *720:A1 1.54694e-05
10 *716:I *720:A1 0
11 *5:17 *720:A1 0.000998619
*RES
1 *719:Z *720:A1 21.87 
*END

*D_NET *150 0.001003
*CONN
*I *724:A1 I *D gf180mcu_fd_sc_mcu7t5v0__or2_2
*I *723:Z O *D gf180mcu_fd_sc_mcu7t5v0__clkbuf_1
*CAP
1 *724:A1 0.000202162
2 *723:Z 0.000202162
3 *724:A1 *722:I 8.05869e-05
4 *724:A1 *723:I 0.000232132
5 *724:A1 *156:6 0
6 *724:A1 *156:19 0.000285958
*RES
1 *723:Z *724:A1 11.7 
*END

*D_NET *151 0.000377879
*CONN
*I *712:EN I *D gf180mcu_fd_sc_mcu7t5v0__invz_2
*I *720:Z O *D gf180mcu_fd_sc_mcu7t5v0__or2_2
*CAP
1 *712:EN 0.000122234
2 *720:Z 0.000122234
3 *712:EN *720:A2 8.33579e-05
4 *712:EN *728:I 1.51153e-05
5 *712:EN *729:I 1.98047e-05
6 *712:EN *156:19 1.5132e-05
*RES
1 *720:Z *712:EN 9.99 
*END

*D_NET *152 0.00110886
*CONN
*I *713:EN I *D gf180mcu_fd_sc_mcu7t5v0__invz_2
*I *724:Z O *D gf180mcu_fd_sc_mcu7t5v0__or2_2
*CAP
1 *713:EN 0.000481256
2 *724:Z 0.000481256
3 *713:EN *715:EN 0.000135666
4 *713:EN *730:I 1.06795e-05
5 *5:17 *713:EN 0
*RES
1 *724:Z *713:EN 20.61 
*END

*D_NET *153 0.00267141
*CONN
*I *719:I I *D gf180mcu_fd_sc_mcu7t5v0__clkbuf_1
*I *718:Z O *D gf180mcu_fd_sc_mcu7t5v0__clkbuf_1
*CAP
1 *719:I 0.00101066
2 *718:Z 0.00101066
3 *719:I *714:EN 0.000341181
4 *719:I *714:I 0.000169524
5 *719:I *715:I 2.44718e-05
6 *719:I *155:12 0.000114196
7 *719:I *164:12 0
8 *716:I *719:I 7.191e-07
*RES
1 *718:Z *719:I 25.11 
*END

*D_NET *154 0.000686078
*CONN
*I *723:I I *D gf180mcu_fd_sc_mcu7t5v0__clkbuf_1
*I *722:Z O *D gf180mcu_fd_sc_mcu7t5v0__clkbuf_1
*CAP
1 *723:I 0.00016774
2 *722:Z 0.00016774
3 *723:I *722:I 1.07374e-05
4 *723:I *800:A1 0
5 *723:I *156:6 1.79237e-05
6 *723:I *176:10 8.98056e-05
7 *724:A1 *723:I 0.000232132
*RES
1 *722:Z *723:I 10.8 
*END

*D_NET *155 0.00219829
*CONN
*I *720:A2 I *D gf180mcu_fd_sc_mcu7t5v0__or2_2
*I *718:I I *D gf180mcu_fd_sc_mcu7t5v0__clkbuf_1
*I *725:I I *D gf180mcu_fd_sc_mcu7t5v0__inv_1
*I *717:Q O *D gf180mcu_fd_sc_mcu7t5v0__latrnq_1
*CAP
1 *720:A2 0.000338609
2 *718:I 0
3 *725:I 9.93525e-05
4 *717:Q 3.44897e-05
5 *155:12 0.000587472
6 *155:6 0.000861219
7 *720:A2 *156:19 1.0415e-05
8 *720:A2 *164:23 0
9 *720:A2 *164:36 2.38064e-05
10 *725:I *714:EN 2.77926e-05
11 *725:I *727:I 0
12 *155:12 *714:EN 1.75747e-05
13 *710:I *155:12 0
14 *712:EN *720:A2 8.33579e-05
15 *719:I *155:12 0.000114196
*RES
1 *717:Q *155:6 4.77 
2 *155:6 *155:12 7.92 
3 *155:12 *725:I 9.81 
4 *155:12 *718:I 9 
5 *155:6 *720:A2 6.75 
*END

*D_NET *156 0.00185091
*CONN
*I *724:A2 I *D gf180mcu_fd_sc_mcu7t5v0__or2_2
*I *722:I I *D gf180mcu_fd_sc_mcu7t5v0__clkbuf_1
*I *728:I I *D gf180mcu_fd_sc_mcu7t5v0__inv_1
*I *721:Q O *D gf180mcu_fd_sc_mcu7t5v0__latrnq_1
*CAP
1 *724:A2 2.37395e-05
2 *722:I 0.000136842
3 *728:I 2.25749e-05
4 *721:Q 6.99483e-05
5 *156:19 0.000525659
6 *156:6 0.000457601
7 *722:I *164:36 1.03692e-05
8 *722:I *176:10 2.40587e-06
9 *728:I *729:I 3.55118e-05
10 *156:19 *729:I 0.000100105
11 *156:19 *164:36 3.02812e-05
12 *311:I *728:I 0
13 *311:I *156:19 0
14 *712:EN *728:I 1.51153e-05
15 *712:EN *156:19 1.5132e-05
16 *720:A2 *156:19 1.0415e-05
17 *723:I *722:I 1.07374e-05
18 *723:I *156:6 1.79237e-05
19 *724:A1 *722:I 8.05869e-05
20 *724:A1 *156:6 0
21 *724:A1 *156:19 0.000285958
*RES
1 *721:Q *156:6 5.13 
2 *156:6 *728:I 4.77 
3 *156:6 *156:19 3.33 
4 *156:19 *722:I 6.03 
5 *156:19 *724:A2 4.77 
*END

*D_NET *157 0.00175255
*CONN
*I *726:I I *D gf180mcu_fd_sc_mcu7t5v0__clkbuf_1
*I *725:ZN O *D gf180mcu_fd_sc_mcu7t5v0__inv_1
*CAP
1 *726:I 0.000356365
2 *725:ZN 0.000356365
3 *726:I *714:EN 0.000172257
4 *726:I *727:I 4.64342e-05
5 *689:EN *726:I 0.00023506
6 *690:EN *726:I 6.27543e-05
7 *699:I *726:I 8.65898e-05
8 *701:A2 *726:I 0.000301265
9 *27:21 *726:I 1.71707e-05
10 *143:16 *726:I 0.000118285
*RES
1 *725:ZN *726:I 21.69 
*END

*D_NET *158 0.00238806
*CONN
*I *729:I I *D gf180mcu_fd_sc_mcu7t5v0__clkbuf_1
*I *728:ZN O *D gf180mcu_fd_sc_mcu7t5v0__inv_1
*CAP
1 *729:I 0.000684856
2 *728:ZN 0.000684856
3 *729:I *709:I 0.000303067
4 *729:I *711:I 3.58255e-05
5 *729:I *714:EN 0
6 *729:I *715:EN 6.54075e-05
7 *729:I *715:I 0.000278763
8 *729:I *164:12 9.92726e-06
9 *729:I *164:23 0.000117094
10 *712:EN *729:I 1.98047e-05
11 *712:I *729:I 2.52675e-05
12 *720:A1 *729:I 2.75776e-05
13 *728:I *729:I 3.55118e-05
14 *156:19 *729:I 0.000100105
*RES
1 *728:ZN *729:I 23.76 
*END

*D_NET *159 0.00122618
*CONN
*I *727:I I *D gf180mcu_fd_sc_mcu7t5v0__clkbuf_1
*I *726:Z O *D gf180mcu_fd_sc_mcu7t5v0__clkbuf_1
*CAP
1 *727:I 0.000261394
2 *726:Z 0.000261394
3 *689:EN *727:I 2.22704e-05
4 *699:I *727:I 1.34934e-05
5 *701:A1 *727:I 0.000380315
6 *701:A2 *727:I 0.000240877
7 *725:I *727:I 0
8 *726:I *727:I 4.64342e-05
*RES
1 *726:Z *727:I 20.43 
*END

*D_NET *160 0.00297569
*CONN
*I *730:I I *D gf180mcu_fd_sc_mcu7t5v0__clkbuf_1
*I *729:Z O *D gf180mcu_fd_sc_mcu7t5v0__clkbuf_1
*CAP
1 *730:I 0.000638748
2 *729:Z 0.000638748
3 *730:I *711:I 0
4 *730:I *715:EN 0.00141098
5 *730:I *800:A1 4.22217e-05
6 *730:I *884:I 4.01144e-05
7 *730:I *164:36 6.02091e-06
8 *730:I *176:10 1.06178e-05
9 *730:I *185:14 0
10 *326:I *730:I 0.000177559
11 *713:EN *730:I 1.06795e-05
*RES
1 *729:Z *730:I 23.76 
*END

*D_NET *161 0.00240919
*CONN
*I *714:EN I *D gf180mcu_fd_sc_mcu7t5v0__invz_8
*I *727:Z O *D gf180mcu_fd_sc_mcu7t5v0__clkbuf_1
*CAP
1 *714:EN 0.000550571
2 *727:Z 0.000550571
3 *311:I *714:EN 0.000106536
4 *689:EN *714:EN 0
5 *717:RN *714:EN 1.25828e-05
6 *719:I *714:EN 0.000341181
7 *725:I *714:EN 2.77926e-05
8 *726:I *714:EN 0.000172257
9 *729:I *714:EN 0
10 *27:21 *714:EN 0.000630129
11 *155:12 *714:EN 1.75747e-05
*RES
1 *727:Z *714:EN 24.39 
*END

*D_NET *162 0.00337557
*CONN
*I *715:EN I *D gf180mcu_fd_sc_mcu7t5v0__invz_4
*I *730:Z O *D gf180mcu_fd_sc_mcu7t5v0__clkbuf_1
*CAP
1 *715:EN 0.000651871
2 *730:Z 0.000651871
3 *715:EN *884:I 1.17934e-05
4 *715:EN *164:36 0.000260418
5 *715:EN *176:10 0.000158515
6 *326:I *715:EN 1.99908e-05
7 *713:EN *715:EN 0.000135666
8 *729:I *715:EN 6.54075e-05
9 *730:I *715:EN 0.00141098
10 *5:17 *715:EN 9.06369e-06
*RES
1 *730:Z *715:EN 24.57 
*END

*D_NET *163 0.00160195
*CONN
*I *717:E I *D gf180mcu_fd_sc_mcu7t5v0__latrnq_1
*I *721:E I *D gf180mcu_fd_sc_mcu7t5v0__latrnq_1
*I *731:Z O *D gf180mcu_fd_sc_mcu7t5v0__xor2_1
*CAP
1 *717:E 0.000206991
2 *721:E 0.000165349
3 *731:Z 0
4 *163:4 0.00037234
5 *717:E *731:A2 0
6 *721:E *731:A2 0.000597948
7 *311:I *717:E 0.000142047
8 *311:I *721:E 0
9 *27:21 *717:E 0.000106536
10 *56:14 *717:E 0
11 *56:14 *721:E 1.07374e-05
*RES
1 *731:Z *163:4 4.5 
2 *163:4 *721:E 6.3 
3 *163:4 *717:E 6.48 
*END

*D_NET *164 0.017711
*CONN
*I *800:A1 I *D gf180mcu_fd_sc_mcu7t5v0__xor2_1
*I *826:I I *D gf180mcu_fd_sc_mcu7t5v0__clkinv_2
*I *733:I I *D gf180mcu_fd_sc_mcu7t5v0__clkbuf_2
*I *709:I I *D gf180mcu_fd_sc_mcu7t5v0__clkbuf_2
*I *712:ZN O *D gf180mcu_fd_sc_mcu7t5v0__invz_2
*I *714:ZN O *D gf180mcu_fd_sc_mcu7t5v0__invz_8
*CAP
1 *800:A1 0.00144904
2 *826:I 0.00101091
3 *733:I 0
4 *709:I 0.00163634
5 *712:ZN 0
6 *714:ZN 0.000627131
7 *164:36 0.00174702
8 *164:23 0.00115475
9 *164:12 0.000858463
10 *800:A1 *756:I 0.000425752
11 *800:A1 *800:A2 9.85004e-05
12 *800:A1 *884:I 0.00052094
13 *800:A1 *176:10 0.000121579
14 *826:I *736:EN 1.17652e-05
15 *826:I *736:I 0
16 *826:I *736:ZN 0
17 *826:I *737:EN 0
18 *826:I *752:I 0.000124025
19 *826:I *753:I 3.97987e-05
20 *826:I *781:I 0
21 *826:I *798:I 3.12377e-05
22 *826:I *815:I 0
23 *826:I *816:A1 0.000753013
24 *164:23 *715:I 3.55753e-05
25 *164:36 *736:ZN 0
26 *164:36 *737:EN 0
27 *164:36 *737:I 0.000389133
28 *164:36 *748:I 0.000141464
29 *164:36 *168:10 9.85004e-05
30 *164:36 *187:8 0.000196928
31 clockp[1] *826:I 0.00015997
32 *311:I *800:A1 1.61174e-05
33 *628:A1 *826:I 0
34 *630:I *826:I 0.000237513
35 *712:I *164:12 0.000835559
36 *715:EN *164:36 0.000260418
37 *717:RN *709:I 6.40324e-06
38 *719:I *164:12 0
39 *720:A1 *709:I 0.000174497
40 *720:A1 *164:23 0.00029374
41 *720:A2 *164:23 0
42 *720:A2 *164:36 2.38064e-05
43 *722:I *164:36 1.03692e-05
44 *723:I *800:A1 0
45 *729:I *709:I 0.000303067
46 *729:I *164:12 9.92726e-06
47 *729:I *164:23 0.000117094
48 *730:I *800:A1 4.22217e-05
49 *730:I *164:36 6.02091e-06
50 *827:I *826:I 1.23715e-05
51 *880:I *800:A1 0.000534868
52 *5:17 *709:I 0.000516376
53 *5:17 *800:A1 0.000195939
54 *5:17 *164:12 2.18436e-05
55 *5:23 *800:A1 0.000236845
56 *5:27 *800:A1 0.000411561
57 *14:17 *800:A1 0.0011001
58 *15:27 *800:A1 1.25778e-05
59 *53:89 *800:A1 2.09122e-05
60 *53:231 *800:A1 0.000485868
61 *56:20 *800:A1 0
62 *76:72 *800:A1 0.000145725
63 *101:8 *800:A1 1.71254e-05
64 *156:19 *164:36 3.02812e-05
*RES
1 *714:ZN *164:12 18.36 
2 *164:12 *712:ZN 4.5 
3 *164:12 *164:23 6.48 
4 *164:23 *709:I 12.33 
5 *164:23 *164:36 11.25 
6 *164:36 *733:I 4.5 
7 *164:36 *826:I 12.33 
8 *709:I *800:A1 33.3 
*END

*D_NET *165 0.00189678
*CONN
*I *731:A2 I *D gf180mcu_fd_sc_mcu7t5v0__xor2_1
*I *709:Z O *D gf180mcu_fd_sc_mcu7t5v0__clkbuf_2
*CAP
1 *731:A2 0.000340143
2 *709:Z 0.000340143
3 *311:I *731:A2 0.000145056
4 *717:E *731:A2 0
5 *721:D *731:A2 0.00020106
6 *721:E *731:A2 0.000597948
7 *5:17 *731:A2 2.65444e-06
8 *5:23 *731:A2 0
9 *15:27 *731:A2 1.18076e-06
10 *53:62 *731:A2 3.94291e-05
11 *56:14 *731:A2 0.000229163
*RES
1 *709:Z *731:A2 22.14 
*END

*D_NET *166 0.00383036
*CONN
*I *711:I I *D gf180mcu_fd_sc_mcu7t5v0__clkbuf_1
*I *715:I I *D gf180mcu_fd_sc_mcu7t5v0__invz_4
*I *714:I I *D gf180mcu_fd_sc_mcu7t5v0__invz_8
*I *710:Z O *D gf180mcu_fd_sc_mcu7t5v0__clkbuf_2
*CAP
1 *711:I 0.000518248
2 *715:I 0.000900683
3 *714:I 0.000721005
4 *710:Z 0.00033857
5 *711:I *185:10 0.000578516
6 *689:I *714:I 0
7 *710:I *714:I 4.64581e-05
8 *713:I *711:I 0.000141012
9 *713:ZN *711:I 0
10 *716:I *711:I 0
11 *719:I *714:I 0.000169524
12 *719:I *715:I 2.44718e-05
13 *720:A1 *711:I 6.0012e-06
14 *720:A1 *714:I 0
15 *720:A1 *715:I 3.57113e-05
16 *729:I *711:I 3.58255e-05
17 *729:I *715:I 0.000278763
18 *730:I *711:I 0
19 *164:23 *715:I 3.55753e-05
*RES
1 *710:Z *714:I 11.7 
2 *714:I *715:I 11.88 
3 *715:I *711:I 13.41 
*END

*D_NET *167 0.00138401
*CONN
*I *736:I I *D gf180mcu_fd_sc_mcu7t5v0__invz_2
*I *734:Z O *D gf180mcu_fd_sc_mcu7t5v0__clkbuf_1
*CAP
1 *736:I 0.000232004
2 *734:Z 0.000232004
3 *736:I *734:I 9.43472e-05
4 *736:I *736:ZN 0.000291749
5 *736:I *738:EN 1.7611e-05
6 *736:I *746:I 5.4903e-05
7 *736:I *747:A1 0.000284587
8 *736:I *751:I 0.000174147
9 *736:I *753:I 2.65444e-06
10 *826:I *736:I 0
*RES
1 *734:Z *736:I 20.88 
*END

*D_NET *168 0.00253212
*CONN
*I *739:I I *D gf180mcu_fd_sc_mcu7t5v0__clkinv_2
*I *736:ZN O *D gf180mcu_fd_sc_mcu7t5v0__invz_2
*I *738:ZN O *D gf180mcu_fd_sc_mcu7t5v0__invz_4
*CAP
1 *739:I 0.000189479
2 *736:ZN 0.000370838
3 *738:ZN 0.000294475
4 *168:10 0.000854792
5 *736:ZN *738:EN 2.20462e-05
6 *736:ZN *187:8 4.76678e-05
7 *739:I *734:I 9.30598e-05
8 *739:I *735:I 0.000181882
9 *168:10 *734:I 2.08993e-05
10 *168:10 *735:I 2.14064e-05
11 *168:10 *746:I 1.31099e-05
12 *168:10 *748:I 3.22122e-05
13 *168:10 *185:14 0
14 *736:I *736:ZN 0.000291749
15 *826:I *736:ZN 0
16 *164:36 *736:ZN 0
17 *164:36 *168:10 9.85004e-05
*RES
1 *738:ZN *168:10 10.8 
2 *168:10 *736:ZN 11.52 
3 *168:10 *739:I 10.89 
*END

*D_NET *169 0.00114051
*CONN
*I *735:I I *D gf180mcu_fd_sc_mcu7t5v0__invz_2
*I *739:ZN O *D gf180mcu_fd_sc_mcu7t5v0__clkinv_2
*CAP
1 *735:I 0.000421169
2 *739:ZN 0.000421169
3 *735:I *734:I 0
4 *735:I *737:I 7.01651e-05
5 *735:I *185:10 2.47156e-05
6 *739:I *735:I 0.000181882
7 *168:10 *735:I 2.14064e-05
*RES
1 *739:ZN *735:I 21.24 
*END

*D_NET *170 0.000472573
*CONN
*I *743:A1 I *D gf180mcu_fd_sc_mcu7t5v0__or2_2
*I *742:Z O *D gf180mcu_fd_sc_mcu7t5v0__clkbuf_1
*CAP
1 *743:A1 0.000184696
2 *742:Z 0.000184696
3 *743:A1 *742:I 6.76694e-05
4 *743:A1 *748:I 3.55118e-05
5 *743:A1 *176:19 0
*RES
1 *742:Z *743:A1 10.53 
*END

*D_NET *171 0.00224799
*CONN
*I *747:A1 I *D gf180mcu_fd_sc_mcu7t5v0__or2_2
*I *746:Z O *D gf180mcu_fd_sc_mcu7t5v0__clkbuf_1
*CAP
1 *747:A1 0.000188866
2 *746:Z 0.000188866
3 *747:A1 *746:I 0.00137363
4 *747:A1 *751:I 0.000212039
5 *736:I *747:A1 0.000284587
*RES
1 *746:Z *747:A1 21.69 
*END

*D_NET *172 0.000795178
*CONN
*I *735:EN I *D gf180mcu_fd_sc_mcu7t5v0__invz_2
*I *743:Z O *D gf180mcu_fd_sc_mcu7t5v0__or2_2
*CAP
1 *735:EN 7.00509e-06
2 *743:Z 7.00509e-06
3 *735:EN *748:I 0.000390584
4 *735:EN *185:14 0.000390584
*RES
1 *743:Z *735:EN 18.99 
*END

*D_NET *173 0.00103326
*CONN
*I *736:EN I *D gf180mcu_fd_sc_mcu7t5v0__invz_2
*I *747:Z O *D gf180mcu_fd_sc_mcu7t5v0__or2_2
*CAP
1 *736:EN 0.000382998
2 *747:Z 0.000382998
3 *736:EN *737:EN 5.78854e-06
4 *736:EN *745:I 1.19491e-05
5 *736:EN *746:I 4.78178e-05
6 *736:EN *747:A2 4.78178e-05
7 *736:EN *750:I 5.78854e-06
8 *736:EN *816:A1 0.000136332
9 *826:I *736:EN 1.17652e-05
10 *78:8 *736:EN 0
*RES
1 *747:Z *736:EN 11.97 
*END

*D_NET *174 0.00118626
*CONN
*I *742:I I *D gf180mcu_fd_sc_mcu7t5v0__clkbuf_1
*I *741:Z O *D gf180mcu_fd_sc_mcu7t5v0__clkbuf_1
*CAP
1 *742:I 0.000330496
2 *741:Z 0.000330496
3 *742:I *737:EN 0.000167602
4 *742:I *748:I 3.97987e-05
5 *742:I *750:I 1.56779e-05
6 *742:I *176:10 2.14748e-05
7 *742:I *176:19 0.000213046
8 *743:A1 *742:I 6.76694e-05
*RES
1 *741:Z *742:I 12.33 
*END

*D_NET *175 0.00368085
*CONN
*I *746:I I *D gf180mcu_fd_sc_mcu7t5v0__clkbuf_1
*I *745:Z O *D gf180mcu_fd_sc_mcu7t5v0__clkbuf_1
*CAP
1 *746:I 0.00050089
2 *745:Z 0.00050089
3 *746:I *734:I 0.000727969
4 *746:I *747:A2 7.71821e-06
5 *746:I *749:I 0
6 *746:I *750:I 0.000365445
7 *746:I *751:I 1.09732e-05
8 *746:I *177:12 7.75026e-05
9 *736:EN *746:I 4.78178e-05
10 *736:I *746:I 5.4903e-05
11 *747:A1 *746:I 0.00137363
12 *168:10 *746:I 1.31099e-05
*RES
1 *745:Z *746:I 24.48 
*END

*D_NET *176 0.00374305
*CONN
*I *748:I I *D gf180mcu_fd_sc_mcu7t5v0__inv_1
*I *743:A2 I *D gf180mcu_fd_sc_mcu7t5v0__or2_2
*I *741:I I *D gf180mcu_fd_sc_mcu7t5v0__clkbuf_1
*I *740:Q O *D gf180mcu_fd_sc_mcu7t5v0__latrnq_1
*CAP
1 *748:I 0.000396301
2 *743:A2 0
3 *741:I 0
4 *740:Q 0.000330137
5 *176:19 0.000553423
6 *176:10 0.00048726
7 *748:I *737:EN 6.93293e-05
8 *748:I *749:I 0.000419824
9 *748:I *185:14 0.000187052
10 *326:I *176:19 3.57113e-05
11 *715:EN *176:10 0.000158515
12 *722:I *176:10 2.40587e-06
13 *723:I *176:10 8.98056e-05
14 *730:I *176:10 1.06178e-05
15 *735:EN *748:I 0.000390584
16 *742:I *748:I 3.97987e-05
17 *742:I *176:10 2.14748e-05
18 *742:I *176:19 0.000213046
19 *743:A1 *748:I 3.55118e-05
20 *743:A1 *176:19 0
21 *800:A1 *176:10 0.000121579
22 *5:17 *176:10 6.99911e-06
23 *164:36 *748:I 0.000141464
24 *168:10 *748:I 3.22122e-05
*RES
1 *740:Q *176:10 7.29 
2 *176:10 *741:I 4.5 
3 *176:10 *176:19 1.62 
4 *176:19 *743:A2 4.5 
5 *176:19 *748:I 18.27 
*END

*D_NET *177 0.0038747
*CONN
*I *745:I I *D gf180mcu_fd_sc_mcu7t5v0__clkbuf_1
*I *751:I I *D gf180mcu_fd_sc_mcu7t5v0__inv_1
*I *747:A2 I *D gf180mcu_fd_sc_mcu7t5v0__or2_2
*I *744:Q O *D gf180mcu_fd_sc_mcu7t5v0__latrnq_1
*CAP
1 *745:I 3.11297e-05
2 *751:I 0.000589541
3 *747:A2 8.03301e-05
4 *744:Q 0.000146491
5 *177:12 0.000800699
6 *177:8 0.000308449
7 *745:I *750:I 9.85004e-05
8 *745:I *783:I 0
9 *745:I *882:I 1.27919e-05
10 *747:A2 *737:EN 0.00035741
11 *751:I *734:I 6.17613e-06
12 *751:I *738:EN 7.191e-07
13 *751:I *752:I 0.000179333
14 *751:I *816:A1 0.00024055
15 *177:8 *750:I 4.61945e-05
16 *177:8 *783:I 0
17 *177:8 *882:I 1.0415e-05
18 *177:12 *750:I 0.000372606
19 *177:12 *816:A1 5.12126e-05
20 *736:EN *745:I 1.19491e-05
21 *736:EN *747:A2 4.78178e-05
22 *736:I *751:I 0.000174147
23 *746:I *747:A2 7.71821e-06
24 *746:I *751:I 1.09732e-05
25 *746:I *177:12 7.75026e-05
26 *747:A1 *751:I 0.000212039
*RES
1 *744:Q *177:8 5.58 
2 *177:8 *177:12 6.03 
3 *177:12 *747:A2 9.99 
4 *177:12 *751:I 14.58 
5 *177:8 *745:I 4.95 
*END

*D_NET *178 0.00135637
*CONN
*I *749:I I *D gf180mcu_fd_sc_mcu7t5v0__clkbuf_1
*I *748:ZN O *D gf180mcu_fd_sc_mcu7t5v0__inv_1
*CAP
1 *749:I 0.000436684
2 *748:ZN 0.000436684
3 *749:I *737:EN 6.31783e-05
4 *749:I *185:14 0
5 *746:I *749:I 0
6 *748:I *749:I 0.000419824
*RES
1 *748:ZN *749:I 21.6 
*END

*D_NET *179 0.00244839
*CONN
*I *752:I I *D gf180mcu_fd_sc_mcu7t5v0__clkbuf_1
*I *751:ZN O *D gf180mcu_fd_sc_mcu7t5v0__inv_1
*CAP
1 *752:I 0.000853921
2 *751:ZN 0.000853921
3 *752:I *753:I 4.83522e-05
4 *752:I *781:I 5.97457e-06
5 *752:I *814:I 0
6 *752:I *816:A1 0.000382866
7 *751:I *752:I 0.000179333
8 *826:I *752:I 0.000124025
9 *78:8 *752:I 0
10 *78:23 *752:I 0
*RES
1 *751:ZN *752:I 24.3 
*END

*D_NET *180 0.00174422
*CONN
*I *750:I I *D gf180mcu_fd_sc_mcu7t5v0__clkbuf_1
*I *749:Z O *D gf180mcu_fd_sc_mcu7t5v0__clkbuf_1
*CAP
1 *750:I 0.000335039
2 *749:Z 0.000335039
3 *750:I *737:EN 0
4 *750:I *816:A1 0.000169927
5 *736:EN *750:I 5.78854e-06
6 *742:I *750:I 1.56779e-05
7 *745:I *750:I 9.85004e-05
8 *746:I *750:I 0.000365445
9 *177:8 *750:I 4.61945e-05
10 *177:12 *750:I 0.000372606
*RES
1 *749:Z *750:I 21.6 
*END

*D_NET *181 0.0026753
*CONN
*I *753:I I *D gf180mcu_fd_sc_mcu7t5v0__clkbuf_1
*I *752:Z O *D gf180mcu_fd_sc_mcu7t5v0__clkbuf_1
*CAP
1 *753:I 0.000823653
2 *752:Z 0.000823653
3 *753:I *814:I 0.000221085
4 *753:I *815:I 1.50737e-05
5 *628:A1 *753:I 0.00070103
6 *736:I *753:I 2.65444e-06
7 *752:I *753:I 4.83522e-05
8 *826:I *753:I 3.97987e-05
*RES
1 *752:Z *753:I 23.85 
*END

*D_NET *182 0.00193437
*CONN
*I *737:EN I *D gf180mcu_fd_sc_mcu7t5v0__invz_8
*I *750:Z O *D gf180mcu_fd_sc_mcu7t5v0__clkbuf_1
*CAP
1 *737:EN 0.000635533
2 *750:Z 0.000635533
3 *736:EN *737:EN 5.78854e-06
4 *742:I *737:EN 0.000167602
5 *747:A2 *737:EN 0.00035741
6 *748:I *737:EN 6.93293e-05
7 *749:I *737:EN 6.31783e-05
8 *750:I *737:EN 0
9 *826:I *737:EN 0
10 *164:36 *737:EN 0
*RES
1 *750:Z *737:EN 13.95 
*END

*D_NET *183 0.000946997
*CONN
*I *738:EN I *D gf180mcu_fd_sc_mcu7t5v0__invz_4
*I *753:Z O *D gf180mcu_fd_sc_mcu7t5v0__clkbuf_1
*CAP
1 *738:EN 0.00045331
2 *753:Z 0.00045331
3 *736:I *738:EN 1.7611e-05
4 *736:ZN *738:EN 2.20462e-05
5 *751:I *738:EN 7.191e-07
*RES
1 *753:Z *738:EN 11.52 
*END

*D_NET *184 0.00343117
*CONN
*I *744:E I *D gf180mcu_fd_sc_mcu7t5v0__latrnq_1
*I *740:E I *D gf180mcu_fd_sc_mcu7t5v0__latrnq_1
*I *754:Z O *D gf180mcu_fd_sc_mcu7t5v0__xor2_1
*CAP
1 *744:E 0.000431115
2 *740:E 0
3 *754:Z 0.000144719
4 *184:8 0.000575834
5 *744:E *783:I 0.000142831
6 *744:E *878:I 0
7 *744:E *884:I 7.90514e-05
8 *184:8 *884:I 2.84698e-05
9 *314:I *744:E 7.191e-07
10 *326:I *744:E 0
11 *721:D *184:8 6.56606e-05
12 *744:RN *744:E 0.000176088
13 *779:I *744:E 0.00134889
14 *779:I *184:8 0.000434794
15 *5:17 *184:8 0
16 *56:14 *184:8 2.99793e-06
*RES
1 *754:Z *184:8 6.12 
2 *184:8 *740:E 4.5 
3 *184:8 *744:E 9.9 
*END

*D_NET *185 0.010954
*CONN
*I *735:ZN O *D gf180mcu_fd_sc_mcu7t5v0__invz_2
*I *732:I I *D gf180mcu_fd_sc_mcu7t5v0__clkbuf_2
*I *756:I I *D gf180mcu_fd_sc_mcu7t5v0__clkbuf_2
*I *823:A1 I *D gf180mcu_fd_sc_mcu7t5v0__xor2_1
*I *737:ZN O *D gf180mcu_fd_sc_mcu7t5v0__invz_8
*CAP
1 *735:ZN 0
2 *732:I 0.000214737
3 *756:I 0.000361
4 *823:A1 0.000378256
5 *737:ZN 0.000379911
6 *185:24 0.00142153
7 *185:14 0.00202087
8 *185:10 0.00150377
9 *732:I *754:A2 8.98873e-05
10 *732:I *874:A1 1.30236e-05
11 *732:I *878:I 5.97457e-06
12 *732:I *878:ZN 0
13 *823:A1 *823:A2 3.22122e-05
14 *185:14 *297:12 0.000101812
15 *185:24 *754:A2 3.04894e-05
16 *185:24 *874:A1 6.57682e-05
17 *185:24 *297:12 0
18 *313:I *185:24 0
19 *616:A1 *756:I 0.000260418
20 *616:A1 *823:A1 1.94402e-05
21 *711:I *185:10 0.000578516
22 *713:I *185:10 0.000578516
23 *730:I *185:14 0
24 *735:EN *185:14 0.000390584
25 *735:I *185:10 2.47156e-05
26 *748:I *185:14 0.000187052
27 *749:I *185:14 0
28 *800:A1 *756:I 0.000425752
29 *884:EN *185:24 3.32853e-05
30 *5:23 *185:14 0
31 *5:27 *823:A1 5.54383e-05
32 *5:27 *185:24 0.000108295
33 *5:31 *823:A1 8.04753e-05
34 *14:17 *756:I 0.000559442
35 *14:17 *823:A1 0
36 *53:82 *756:I 8.63363e-05
37 *53:89 *756:I 4.6613e-06
38 *53:95 *823:A1 0.000346414
39 *53:108 *823:A1 4.16932e-05
40 *56:22 *756:I 0.000317003
41 *101:14 *823:A1 0.000236737
42 *168:10 *185:14 0
*RES
1 *737:ZN *185:10 12.42 
2 *185:10 *185:14 12.51 
3 *185:14 *185:24 8.64 
4 *185:24 *823:A1 13.14 
5 *185:24 *756:I 13.95 
6 *185:14 *732:I 6.03 
7 *185:10 *735:ZN 9 
*END

*D_NET *186 0.00282308
*CONN
*I *754:A2 I *D gf180mcu_fd_sc_mcu7t5v0__xor2_1
*I *732:Z O *D gf180mcu_fd_sc_mcu7t5v0__clkbuf_2
*CAP
1 *754:A2 0.000383968
2 *732:Z 0.000383968
3 *754:A2 *297:6 0.000567799
4 *313:I *754:A2 1.77911e-05
5 *732:I *754:A2 8.98873e-05
6 *740:D *754:A2 1.07374e-05
7 *744:RN *754:A2 1.84476e-05
8 *884:EN *754:A2 0.000202609
9 *15:27 *754:A2 0.000904334
10 *28:13 *754:A2 0.000213046
11 *185:24 *754:A2 3.04894e-05
*RES
1 *732:Z *754:A2 14.31 
*END

*D_NET *187 0.00331097
*CONN
*I *734:I I *D gf180mcu_fd_sc_mcu7t5v0__clkbuf_1
*I *738:I I *D gf180mcu_fd_sc_mcu7t5v0__invz_4
*I *737:I I *D gf180mcu_fd_sc_mcu7t5v0__invz_8
*I *733:Z O *D gf180mcu_fd_sc_mcu7t5v0__clkbuf_2
*CAP
1 *734:I 0.000361445
2 *738:I 0.000114062
3 *737:I 0.000220723
4 *733:Z 0
5 *187:8 0.000470867
6 *187:4 0.000497527
7 *735:I *734:I 0
8 *735:I *737:I 7.01651e-05
9 *736:I *734:I 9.43472e-05
10 *736:ZN *187:8 4.76678e-05
11 *739:I *734:I 9.30598e-05
12 *746:I *734:I 0.000727969
13 *751:I *734:I 6.17613e-06
14 *164:36 *737:I 0.000389133
15 *164:36 *187:8 0.000196928
16 *168:10 *734:I 2.08993e-05
*RES
1 *733:Z *187:4 4.5 
2 *187:4 *187:8 1.62 
3 *187:8 *737:I 6.93 
4 *187:8 *738:I 5.4 
5 *187:4 *734:I 16.92 
*END

*D_NET *188 0.00125165
*CONN
*I *759:I I *D gf180mcu_fd_sc_mcu7t5v0__invz_2
*I *757:Z O *D gf180mcu_fd_sc_mcu7t5v0__clkbuf_1
*CAP
1 *759:I 0.00036104
2 *757:Z 0.00036104
3 *759:I *759:EN 5.22248e-06
4 *759:I *762:I 0.000395074
5 *53:10 *759:I 2.0224e-05
6 *56:20 *759:I 0.000109051
*RES
1 *757:Z *759:I 21.15 
*END

*D_NET *189 0.00277892
*CONN
*I *759:ZN O *D gf180mcu_fd_sc_mcu7t5v0__invz_2
*I *762:I I *D gf180mcu_fd_sc_mcu7t5v0__clkinv_2
*I *761:ZN O *D gf180mcu_fd_sc_mcu7t5v0__invz_4
*CAP
1 *759:ZN 0
2 *762:I 0.00029443
3 *761:ZN 0.000230401
4 *189:8 0.000524831
5 *762:I *757:I 8.77402e-05
6 *762:I *759:EN 4.72617e-05
7 *762:I *760:I 3.08806e-06
8 *189:8 *837:I 8.32325e-05
9 *759:I *762:I 0.000395074
10 *14:17 *189:8 7.4772e-05
11 *53:10 *762:I 0.000683365
12 *101:34 *762:I 0.000354728
*RES
1 *761:ZN *189:8 6.12 
2 *189:8 *762:I 17.28 
3 *189:8 *759:ZN 4.5 
*END

*D_NET *190 0.00219596
*CONN
*I *758:I I *D gf180mcu_fd_sc_mcu7t5v0__invz_2
*I *762:ZN O *D gf180mcu_fd_sc_mcu7t5v0__clkinv_2
*CAP
1 *758:I 0.000164259
2 *762:ZN 0.000164259
3 *758:I *757:I 0.000143583
4 *758:I *760:I 0.000118531
5 *758:I *205:16 0.000572976
6 *698:D *758:I 1.79237e-05
7 *14:17 *758:I 0.000178457
8 *56:22 *758:I 0.000835967
*RES
1 *762:ZN *758:I 21.78 
*END

*D_NET *191 0.00110021
*CONN
*I *766:A1 I *D gf180mcu_fd_sc_mcu7t5v0__or2_2
*I *765:Z O *D gf180mcu_fd_sc_mcu7t5v0__clkbuf_1
*CAP
1 *766:A1 0.000497454
2 *765:Z 0.000497454
3 *766:A1 *832:EN 2.30981e-05
4 *766:A1 *834:EN 0
5 *650:I *766:A1 4.5615e-05
6 *850:A1 *766:A1 3.659e-05
*RES
1 *765:Z *766:A1 12.78 
*END

*D_NET *192 0.00154685
*CONN
*I *770:A1 I *D gf180mcu_fd_sc_mcu7t5v0__or2_2
*I *769:Z O *D gf180mcu_fd_sc_mcu7t5v0__clkbuf_1
*CAP
1 *770:A1 0.000281107
2 *769:Z 0.000281107
3 *770:A1 *770:A2 1.61174e-05
4 *770:A1 *776:I 0.000379932
5 *650:I *770:A1 0.000212124
6 *9:9 *770:A1 0.000146911
7 *52:14 *770:A1 0.000143583
8 *54:16 *770:A1 3.53802e-05
9 *54:36 *770:A1 5.05894e-05
*RES
1 *769:Z *770:A1 21.78 
*END

*D_NET *193 0.000663833
*CONN
*I *758:EN I *D gf180mcu_fd_sc_mcu7t5v0__invz_2
*I *766:Z O *D gf180mcu_fd_sc_mcu7t5v0__or2_2
*CAP
1 *758:EN 0.000191699
2 *766:Z 0.000191699
3 *758:EN *832:I 8.39199e-05
4 *649:I *758:EN 4.50886e-05
5 *30:29 *758:EN 0.000151427
*RES
1 *766:Z *758:EN 10.98 
*END

*D_NET *194 0.00164026
*CONN
*I *759:EN I *D gf180mcu_fd_sc_mcu7t5v0__invz_2
*I *770:Z O *D gf180mcu_fd_sc_mcu7t5v0__or2_2
*CAP
1 *759:EN 0.00034522
2 *770:Z 0.00034522
3 *759:EN *757:I 0.000196261
4 *759:EN *760:I 4.34691e-05
5 *759:EN *761:I 0.000354738
6 *759:EN *205:16 6.51817e-05
7 *759:I *759:EN 5.22248e-06
8 *762:I *759:EN 4.72617e-05
9 *53:10 *759:EN 0.000166843
10 *56:22 *759:EN 7.08402e-05
*RES
1 *770:Z *759:EN 21.6 
*END

*D_NET *195 0.000932332
*CONN
*I *765:I I *D gf180mcu_fd_sc_mcu7t5v0__clkbuf_1
*I *764:Z O *D gf180mcu_fd_sc_mcu7t5v0__clkbuf_1
*CAP
1 *765:I 0.000105821
2 *764:Z 0.000105821
3 *765:I *265:10 8.65553e-07
4 *652:D *765:I 0.00023712
5 *828:I *765:I 0
6 *30:29 *765:I 0.000482706
*RES
1 *764:Z *765:I 19.35 
*END

*D_NET *196 0.0010671
*CONN
*I *769:I I *D gf180mcu_fd_sc_mcu7t5v0__clkbuf_1
*I *768:Z O *D gf180mcu_fd_sc_mcu7t5v0__clkbuf_1
*CAP
1 *769:I 0.000354741
2 *768:Z 0.000354741
3 *769:I *774:I 1.51153e-05
4 *769:I *775:I 4.61945e-05
5 *769:I *776:I 0
6 *54:16 *769:I 0.000281238
7 *54:36 *769:I 1.50737e-05
*RES
1 *768:Z *769:I 11.88 
*END

*D_NET *197 0.00471138
*CONN
*I *766:A2 I *D gf180mcu_fd_sc_mcu7t5v0__or2_2
*I *771:I I *D gf180mcu_fd_sc_mcu7t5v0__inv_1
*I *764:I I *D gf180mcu_fd_sc_mcu7t5v0__clkbuf_1
*I *763:Q O *D gf180mcu_fd_sc_mcu7t5v0__latrnq_1
*CAP
1 *766:A2 0.0001783
2 *771:I 6.68644e-05
3 *764:I 7.78648e-05
4 *763:Q 0.000196921
5 *197:23 0.000455973
6 *197:10 0.000485594
7 *766:A2 *772:I 0.00022921
8 *766:A2 *773:I 0.000177834
9 *766:A2 *205:16 3.42213e-05
10 *771:I *772:I 0.000293026
11 *324:I *766:A2 0.000492198
12 *324:I *197:10 0.000124624
13 *324:I *197:23 0.000482383
14 *597:I *766:A2 0.000226832
15 *597:I *197:23 0.000474665
16 *850:A1 *771:I 3.01487e-05
17 *12:13 *764:I 7.46964e-06
18 *12:13 *771:I 0.000468501
19 *12:13 *197:23 8.3e-06
20 *30:29 *766:A2 6.12653e-05
21 *30:29 *197:10 8.67445e-05
22 *44:8 *197:23 5.97457e-06
23 *54:16 *771:I 4.64672e-05
*RES
1 *763:Q *197:10 15.03 
2 *197:10 *764:I 4.95 
3 *197:10 *197:23 6.66 
4 *197:23 *771:I 10.35 
5 *197:23 *766:A2 12.33 
*END

*D_NET *198 0.00487632
*CONN
*I *770:A2 I *D gf180mcu_fd_sc_mcu7t5v0__or2_2
*I *768:I I *D gf180mcu_fd_sc_mcu7t5v0__clkbuf_1
*I *774:I I *D gf180mcu_fd_sc_mcu7t5v0__inv_1
*I *767:Q O *D gf180mcu_fd_sc_mcu7t5v0__latrnq_1
*CAP
1 *770:A2 0.000154306
2 *768:I 0
3 *774:I 0.000178314
4 *767:Q 0.000344944
5 *198:23 0.00022989
6 *198:8 0.000598842
7 *770:A2 *775:I 0.000255088
8 *770:A2 *776:I 5.79792e-06
9 *770:A2 *205:16 0.000337622
10 *774:I *775:I 0.000763739
11 *198:8 *205:16 0.0009417
12 *198:23 *775:I 0.000380315
13 *198:23 *205:16 0.000199128
14 *599:EN *198:8 0
15 *650:I *770:A2 9.85004e-05
16 *769:I *774:I 1.51153e-05
17 *770:A1 *770:A2 1.61174e-05
18 *9:9 *770:A2 0
19 *9:9 *774:I 0
20 *9:9 *198:8 0
21 *9:9 *198:23 0
22 *12:13 *774:I 0.000356899
*RES
1 *767:Q *198:8 11.79 
2 *198:8 *774:I 11.97 
3 *198:8 *198:23 1.35 
4 *198:23 *768:I 9 
5 *198:23 *770:A2 11.34 
*END

*D_NET *199 0.00125633
*CONN
*I *772:I I *D gf180mcu_fd_sc_mcu7t5v0__clkbuf_1
*I *771:ZN O *D gf180mcu_fd_sc_mcu7t5v0__inv_1
*CAP
1 *772:I 0.000104377
2 *771:ZN 0.000104377
3 *772:I *205:16 0.000204537
4 *597:I *772:I 0.000171937
5 *766:A2 *772:I 0.00022921
6 *771:I *772:I 0.000293026
7 *54:16 *772:I 0.000148867
*RES
1 *771:ZN *772:I 20.52 
*END

*D_NET *200 0.00249202
*CONN
*I *775:I I *D gf180mcu_fd_sc_mcu7t5v0__clkbuf_1
*I *774:ZN O *D gf180mcu_fd_sc_mcu7t5v0__inv_1
*CAP
1 *775:I 0.000193189
2 *774:ZN 0.000193189
3 *769:I *775:I 4.61945e-05
4 *770:A2 *775:I 0.000255088
5 *774:I *775:I 0.000763739
6 *9:9 *775:I 0
7 *12:13 *775:I 2.14748e-05
8 *54:16 *775:I 0.000638833
9 *198:23 *775:I 0.000380315
*RES
1 *774:ZN *775:I 21.78 
*END

*D_NET *201 0.000850824
*CONN
*I *773:I I *D gf180mcu_fd_sc_mcu7t5v0__clkbuf_1
*I *772:Z O *D gf180mcu_fd_sc_mcu7t5v0__clkbuf_1
*CAP
1 *773:I 0.00018845
2 *772:Z 0.00018845
3 *773:I *205:16 0.000296091
4 *766:A2 *773:I 0.000177834
5 *30:29 *773:I 0
*RES
1 *772:Z *773:I 20.43 
*END

*D_NET *202 0.00176559
*CONN
*I *776:I I *D gf180mcu_fd_sc_mcu7t5v0__clkbuf_1
*I *775:Z O *D gf180mcu_fd_sc_mcu7t5v0__clkbuf_1
*CAP
1 *776:I 0.000462687
2 *775:Z 0.000462687
3 *616:A1 *776:I 0
4 *769:I *776:I 0
5 *770:A1 *776:I 0.000379932
6 *770:A2 *776:I 5.79792e-06
7 *9:9 *776:I 0.000346684
8 *54:36 *776:I 0.000107798
*RES
1 *775:Z *776:I 22.14 
*END

*D_NET *203 0.000478742
*CONN
*I *760:EN I *D gf180mcu_fd_sc_mcu7t5v0__invz_8
*I *773:Z O *D gf180mcu_fd_sc_mcu7t5v0__clkbuf_1
*CAP
1 *760:EN 0.000141034
2 *773:Z 0.000141034
3 *760:EN *205:16 0.000133776
4 *56:22 *760:EN 3.97987e-05
5 *101:34 *760:EN 2.30981e-05
*RES
1 *773:Z *760:EN 19.44 
*END

*D_NET *204 0.000373286
*CONN
*I *761:EN I *D gf180mcu_fd_sc_mcu7t5v0__invz_4
*I *776:Z O *D gf180mcu_fd_sc_mcu7t5v0__clkbuf_1
*CAP
1 *761:EN 5.93634e-05
2 *776:Z 5.93634e-05
3 *649:I *761:EN 0.000225911
4 *30:29 *761:EN 2.86475e-05
*RES
1 *776:Z *761:EN 9.9 
*END

*D_NET *205 0.00779544
*CONN
*I *767:E I *D gf180mcu_fd_sc_mcu7t5v0__latrnq_1
*I *763:E I *D gf180mcu_fd_sc_mcu7t5v0__latrnq_1
*I *777:Z O *D gf180mcu_fd_sc_mcu7t5v0__xor2_1
*CAP
1 *767:E 0
2 *763:E 9.03779e-05
3 *777:Z 0.00134721
4 *205:16 0.00143759
5 *205:16 *757:I 3.62257e-05
6 *205:16 *760:I 0.000127949
7 *205:16 *837:I 1.63547e-05
8 *301:I *763:E 0.000230969
9 *597:I *205:16 8.50796e-05
10 *599:EN *205:16 0
11 *611:I *763:E 0.000223407
12 *611:I *205:16 0.00032625
13 *758:I *205:16 0.000572976
14 *759:EN *205:16 6.51817e-05
15 *760:EN *205:16 0.000133776
16 *763:D *763:E 9.85004e-05
17 *766:A2 *205:16 3.42213e-05
18 *770:A2 *205:16 0.000337622
19 *772:I *205:16 0.000204537
20 *773:I *205:16 0.000296091
21 *7:9 *763:E 3.22348e-05
22 *9:9 *205:16 0
23 *53:10 *205:16 0
24 *53:143 *763:E 0.00039024
25 *53:145 *763:E 0.000327261
26 *53:147 *763:E 0.000240548
27 *198:8 *205:16 0.0009417
28 *198:23 *205:16 0.000199128
*RES
1 *777:Z *205:16 27.72 
2 *205:16 *763:E 7.11 
3 *205:16 *767:E 4.5 
*END

*D_NET *206 0.00240643
*CONN
*I *777:A2 I *D gf180mcu_fd_sc_mcu7t5v0__xor2_1
*I *755:Z O *D gf180mcu_fd_sc_mcu7t5v0__clkbuf_2
*CAP
1 *777:A2 0.00039575
2 *755:Z 0.00039575
3 *777:A2 *837:I 0.000148236
4 *777:A2 *839:A1 0.00135804
5 *698:E *777:A2 5.55759e-05
6 *708:A2 *777:A2 5.30834e-05
*RES
1 *755:Z *777:A2 13.95 
*END

*D_NET *207 0.00389402
*CONN
*I *761:I I *D gf180mcu_fd_sc_mcu7t5v0__invz_4
*I *760:I I *D gf180mcu_fd_sc_mcu7t5v0__invz_8
*I *757:I I *D gf180mcu_fd_sc_mcu7t5v0__clkbuf_1
*I *756:Z O *D gf180mcu_fd_sc_mcu7t5v0__clkbuf_2
*CAP
1 *761:I 0.000134429
2 *760:I 0.000239153
3 *757:I 0.000128706
4 *756:Z 0
5 *207:8 0.000390794
6 *207:4 0.000157364
7 *760:I *837:I 1.70736e-05
8 *758:I *757:I 0.000143583
9 *758:I *760:I 0.000118531
10 *759:EN *757:I 0.000196261
11 *759:EN *760:I 4.34691e-05
12 *759:EN *761:I 0.000354738
13 *762:I *757:I 8.77402e-05
14 *762:I *760:I 3.08806e-06
15 *14:17 *760:I 0.000498052
16 *30:29 *757:I 0.00050482
17 *53:10 *760:I 6.02899e-05
18 *53:10 *761:I 0.000196928
19 *56:22 *761:I 1.84368e-05
20 *56:22 *207:8 2.31089e-05
21 *101:34 *757:I 2.32439e-05
22 *101:34 *761:I 0.000350227
23 *101:34 *207:8 3.98088e-05
24 *205:16 *757:I 3.62257e-05
25 *205:16 *760:I 0.000127949
*RES
1 *756:Z *207:4 4.5 
2 *207:4 *207:8 4.77 
3 *207:8 *757:I 11.52 
4 *207:8 *760:I 11.88 
5 *207:4 *761:I 6.93 
*END

*D_NET *208 0.000276132
*CONN
*I *782:I I *D gf180mcu_fd_sc_mcu7t5v0__invz_2
*I *780:Z O *D gf180mcu_fd_sc_mcu7t5v0__clkbuf_1
*CAP
1 *782:I 0.000136739
2 *780:Z 0.000136739
3 *782:I *780:I 2.65444e-06
*RES
1 *780:Z *782:I 10.08 
*END

*D_NET *209 0.0019397
*CONN
*I *785:I I *D gf180mcu_fd_sc_mcu7t5v0__clkinv_2
*I *782:ZN O *D gf180mcu_fd_sc_mcu7t5v0__invz_2
*I *784:ZN O *D gf180mcu_fd_sc_mcu7t5v0__invz_4
*CAP
1 *785:I 3.76339e-05
2 *782:ZN 0.00048635
3 *784:ZN 0
4 *209:4 0.000523984
5 *782:ZN *780:I 0
6 *782:ZN *781:I 3.56634e-05
7 *782:ZN *784:EN 6.2094e-05
8 *782:ZN *799:I 9.18844e-05
9 *782:ZN *227:20 0
10 *785:I *797:I 0.000536348
11 *631:I *785:I 0.000165741
*RES
1 *784:ZN *209:4 4.5 
2 *209:4 *782:ZN 7.65 
3 *209:4 *785:I 14.85 
*END

*D_NET *210 0.000876544
*CONN
*I *781:I I *D gf180mcu_fd_sc_mcu7t5v0__invz_2
*I *785:ZN O *D gf180mcu_fd_sc_mcu7t5v0__clkinv_2
*CAP
1 *781:I 0.000367517
2 *785:ZN 0.000367517
3 *752:I *781:I 5.97457e-06
4 *782:ZN *781:I 3.56634e-05
5 *826:I *781:I 0
6 *78:23 *781:I 9.98732e-05
*RES
1 *785:ZN *781:I 11.52 
*END

*D_NET *211 0.002186
*CONN
*I *789:A1 I *D gf180mcu_fd_sc_mcu7t5v0__or2_2
*I *788:Z O *D gf180mcu_fd_sc_mcu7t5v0__clkbuf_1
*CAP
1 *789:A1 0.000534924
2 *788:Z 0.000534924
3 *789:A1 *787:I 3.97987e-05
4 *789:A1 *788:I 0.000336293
5 *789:A1 *789:A2 0.000346935
6 *789:A1 *791:I 0.000215887
7 *789:A1 *793:A1 1.27919e-05
8 *789:A1 *794:I 8.4366e-06
9 *789:A1 *795:I 0
10 *789:A1 *217:6 5.97457e-06
11 *789:A1 *218:20 0.00015004
*RES
1 *788:Z *789:A1 14.4 
*END

*D_NET *212 0.000579308
*CONN
*I *793:A1 I *D gf180mcu_fd_sc_mcu7t5v0__or2_2
*I *792:Z O *D gf180mcu_fd_sc_mcu7t5v0__clkbuf_1
*CAP
1 *793:A1 0.000157559
2 *792:Z 0.000157559
3 *793:A1 *791:I 0.000199769
4 *793:A1 *794:I 3.55118e-05
5 *793:A1 *218:20 1.61174e-05
6 *789:A1 *793:A1 1.27919e-05
*RES
1 *792:Z *793:A1 10.53 
*END

*D_NET *213 0.000496458
*CONN
*I *781:EN I *D gf180mcu_fd_sc_mcu7t5v0__invz_2
*I *789:Z O *D gf180mcu_fd_sc_mcu7t5v0__or2_2
*CAP
1 *781:EN 0.000195442
2 *789:Z 0.000195442
3 *781:EN *783:I 0
4 *628:A1 *781:EN 0.000105575
*RES
1 *789:Z *781:EN 10.53 
*END

*D_NET *214 0.00116974
*CONN
*I *782:EN I *D gf180mcu_fd_sc_mcu7t5v0__invz_2
*I *793:Z O *D gf180mcu_fd_sc_mcu7t5v0__or2_2
*CAP
1 *782:EN 0.000298664
2 *793:Z 0.000298664
3 *782:EN *788:I 3.10003e-05
4 *782:EN *799:I 5.06377e-06
5 *626:I *782:EN 0.000536348
6 *635:I *782:EN 0
*RES
1 *793:Z *782:EN 20.7 
*END

*D_NET *215 0.00107573
*CONN
*I *788:I I *D gf180mcu_fd_sc_mcu7t5v0__clkbuf_1
*I *787:Z O *D gf180mcu_fd_sc_mcu7t5v0__clkbuf_1
*CAP
1 *788:I 0.000280503
2 *787:Z 0.000280503
3 *788:I *218:20 0.000147435
4 *782:EN *788:I 3.10003e-05
5 *789:A1 *788:I 0.000336293
*RES
1 *787:Z *788:I 11.52 
*END

*D_NET *216 0.000204595
*CONN
*I *792:I I *D gf180mcu_fd_sc_mcu7t5v0__clkbuf_1
*I *791:Z O *D gf180mcu_fd_sc_mcu7t5v0__clkbuf_1
*CAP
1 *792:I 0.000102297
2 *791:Z 0.000102297
*RES
1 *791:Z *792:I 9.63 
*END

*D_NET *217 0.00206651
*CONN
*I *789:A2 I *D gf180mcu_fd_sc_mcu7t5v0__or2_2
*I *787:I I *D gf180mcu_fd_sc_mcu7t5v0__clkbuf_1
*I *794:I I *D gf180mcu_fd_sc_mcu7t5v0__inv_1
*I *786:Q O *D gf180mcu_fd_sc_mcu7t5v0__latrnq_1
*CAP
1 *789:A2 8.76653e-05
2 *787:I 0.000184063
3 *794:I 0.000185461
4 *786:Q 6.89256e-05
5 *217:6 0.000350785
6 *794:I *795:I 0.000229635
7 *794:I *218:20 3.32997e-05
8 *217:6 *795:I 0.000490017
9 *789:A1 *787:I 3.97987e-05
10 *789:A1 *789:A2 0.000346935
11 *789:A1 *794:I 8.4366e-06
12 *789:A1 *217:6 5.97457e-06
13 *793:A1 *794:I 3.55118e-05
*RES
1 *786:Q *217:6 5.85 
2 *217:6 *794:I 6.12 
3 *217:6 *787:I 5.4 
4 *787:I *789:A2 10.44 
*END

*D_NET *218 0.0072368
*CONN
*I *797:I I *D gf180mcu_fd_sc_mcu7t5v0__inv_1
*I *791:I I *D gf180mcu_fd_sc_mcu7t5v0__clkbuf_1
*I *793:A2 I *D gf180mcu_fd_sc_mcu7t5v0__or2_2
*I *790:Q O *D gf180mcu_fd_sc_mcu7t5v0__latrnq_1
*CAP
1 *797:I 0.000397883
2 *791:I 0.000286089
3 *793:A2 0
4 *790:Q 7.00164e-05
5 *218:20 0.000552124
6 *218:8 0.000733933
7 *797:I *784:EN 0.00041759
8 *218:20 *780:I 0
9 *218:20 *227:20 0
10 *626:I *791:I 0
11 *628:A1 *797:I 0.000212436
12 *630:I *797:I 0.000296869
13 *631:I *797:I 0.000181638
14 *631:I *218:8 0.000103976
15 *631:I *218:20 0.000151455
16 *634:I *797:I 0
17 *634:I *218:20 0.000358547
18 *635:I *791:I 0.000292165
19 *785:I *797:I 0.000536348
20 *788:I *218:20 0.000147435
21 *789:A1 *791:I 0.000215887
22 *789:A1 *218:20 0.00015004
23 *793:A1 *791:I 0.000199769
24 *793:A1 *218:20 1.61174e-05
25 *794:I *218:20 3.32997e-05
26 *78:23 *797:I 0.00138168
27 *78:23 *218:8 0.000501506
*RES
1 *790:Q *218:8 10.35 
2 *218:8 *218:20 16.29 
3 *218:20 *793:A2 4.5 
4 *218:20 *791:I 16.74 
5 *218:8 *797:I 16.38 
*END

*D_NET *219 0.00181059
*CONN
*I *795:I I *D gf180mcu_fd_sc_mcu7t5v0__clkbuf_1
*I *794:ZN O *D gf180mcu_fd_sc_mcu7t5v0__inv_1
*CAP
1 *795:I 0.000511712
2 *794:ZN 0.000511712
3 *795:I *796:I 5.97457e-06
4 *795:I *879:I 5.97457e-06
5 *789:A1 *795:I 0
6 *794:I *795:I 0.000229635
7 *76:66 *795:I 5.55671e-05
8 *217:6 *795:I 0.000490017
*RES
1 *794:ZN *795:I 13.05 
*END

*D_NET *220 0.00356984
*CONN
*I *798:I I *D gf180mcu_fd_sc_mcu7t5v0__clkbuf_1
*I *797:ZN O *D gf180mcu_fd_sc_mcu7t5v0__inv_1
*CAP
1 *798:I 0.000526247
2 *797:ZN 0.000526247
3 *798:I *799:I 0.000385445
4 *626:I *798:I 0.0019864
5 *628:A1 *798:I 0.000114261
6 *635:I *798:I 0
7 *826:I *798:I 3.12377e-05
*RES
1 *797:ZN *798:I 24.12 
*END

*D_NET *221 0.000582889
*CONN
*I *796:I I *D gf180mcu_fd_sc_mcu7t5v0__clkbuf_1
*I *795:Z O *D gf180mcu_fd_sc_mcu7t5v0__clkbuf_1
*CAP
1 *796:I 0.000242919
2 *795:Z 0.000242919
3 *796:I *783:EN 9.10772e-05
4 *796:I *879:I 0
5 *795:I *796:I 5.97457e-06
*RES
1 *795:Z *796:I 10.8 
*END

*D_NET *222 0.000821408
*CONN
*I *799:I I *D gf180mcu_fd_sc_mcu7t5v0__clkbuf_1
*I *798:Z O *D gf180mcu_fd_sc_mcu7t5v0__clkbuf_1
*CAP
1 *799:I 0.000169508
2 *798:Z 0.000169508
3 *635:I *799:I 0
4 *782:EN *799:I 5.06377e-06
5 *782:ZN *799:I 9.18844e-05
6 *798:I *799:I 0.000385445
*RES
1 *798:Z *799:I 19.71 
*END

*D_NET *223 0.000548586
*CONN
*I *783:EN I *D gf180mcu_fd_sc_mcu7t5v0__invz_8
*I *796:Z O *D gf180mcu_fd_sc_mcu7t5v0__clkbuf_1
*CAP
1 *783:EN 0.000157224
2 *796:Z 0.000157224
3 *783:EN *783:I 0.000143061
4 *796:I *783:EN 9.10772e-05
*RES
1 *796:Z *783:EN 10.53 
*END

*D_NET *224 0.00133241
*CONN
*I *784:EN I *D gf180mcu_fd_sc_mcu7t5v0__invz_4
*I *799:Z O *D gf180mcu_fd_sc_mcu7t5v0__clkbuf_1
*CAP
1 *784:EN 0.000202238
2 *799:Z 0.000202238
3 *784:EN *780:I 3.56862e-05
4 *784:EN *227:20 2.89427e-06
5 *631:I *784:EN 0.000409673
6 *782:ZN *784:EN 6.2094e-05
7 *797:I *784:EN 0.00041759
*RES
1 *799:Z *784:EN 21.24 
*END

*D_NET *225 0.00131988
*CONN
*I *790:E I *D gf180mcu_fd_sc_mcu7t5v0__latrnq_1
*I *786:E I *D gf180mcu_fd_sc_mcu7t5v0__latrnq_1
*I *800:Z O *D gf180mcu_fd_sc_mcu7t5v0__xor2_1
*CAP
1 *790:E 0.000181982
2 *786:E 0.000276937
3 *800:Z 9.49554e-05
4 *786:E *800:A2 6.62654e-05
5 *790:E *800:A2 4.29496e-05
6 *790:RN *790:E 0.000344012
7 *30:29 *786:E 6.62654e-05
8 *53:231 *790:E 0.000169515
9 *76:66 *790:E 7.69961e-05
*RES
1 *800:Z *786:E 9.81 
2 *786:E *790:E 10.98 
*END

*D_NET *226 0.00218224
*CONN
*I *800:A2 I *D gf180mcu_fd_sc_mcu7t5v0__xor2_1
*I *778:Z O *D gf180mcu_fd_sc_mcu7t5v0__clkbuf_2
*CAP
1 *800:A2 0.000604907
2 *778:Z 0.000604907
3 *778:I *800:A2 0.000410856
4 *786:E *800:A2 6.62654e-05
5 *790:E *800:A2 4.29496e-05
6 *790:RN *800:A2 0.000118213
7 *800:A1 *800:A2 9.85004e-05
8 *30:29 *800:A2 1.03692e-05
9 *53:231 *800:A2 0.000225271
10 *76:66 *800:A2 0
*RES
1 *778:Z *800:A2 14.4 
*END

*D_NET *227 0.00492646
*CONN
*I *780:I I *D gf180mcu_fd_sc_mcu7t5v0__clkbuf_1
*I *784:I I *D gf180mcu_fd_sc_mcu7t5v0__invz_4
*I *783:I I *D gf180mcu_fd_sc_mcu7t5v0__invz_8
*I *779:Z O *D gf180mcu_fd_sc_mcu7t5v0__clkbuf_2
*CAP
1 *780:I 0.000495062
2 *784:I 0
3 *783:I 0.00104957
4 *779:Z 0.000581398
5 *227:20 0.000963231
6 *783:I *882:I 2.1573e-06
7 clockp[1] *780:I 5.30888e-06
8 *314:I *783:I 0
9 *631:I *780:I 0.000457092
10 *634:I *780:I 0.000985898
11 *744:E *783:I 0.000142831
12 *745:I *783:I 0
13 *781:EN *783:I 0
14 *782:I *780:I 2.65444e-06
15 *782:ZN *780:I 0
16 *782:ZN *227:20 0
17 *783:EN *783:I 0.000143061
18 *784:EN *780:I 3.56862e-05
19 *784:EN *227:20 2.89427e-06
20 *827:I *780:I 5.9617e-05
21 *78:8 *227:20 0
22 *78:23 *227:20 0
23 *177:8 *783:I 0
24 *218:20 *780:I 0
25 *218:20 *227:20 0
*RES
1 *779:Z *783:I 13.32 
2 *783:I *227:20 7.11 
3 *227:20 *784:I 4.5 
4 *227:20 *780:I 18.81 
*END

*D_NET *228 0.000581718
*CONN
*I *805:I I *D gf180mcu_fd_sc_mcu7t5v0__invz_2
*I *803:Z O *D gf180mcu_fd_sc_mcu7t5v0__clkbuf_1
*CAP
1 *805:I 0.000260351
2 *803:Z 0.000260351
3 *805:I *805:ZN 6.0012e-06
4 *637:I *805:I 2.75073e-05
5 *638:I *805:I 2.75073e-05
*RES
1 *803:Z *805:I 10.62 
*END

*D_NET *229 0.00105196
*CONN
*I *805:ZN O *D gf180mcu_fd_sc_mcu7t5v0__invz_2
*I *808:I I *D gf180mcu_fd_sc_mcu7t5v0__clkinv_2
*I *807:ZN O *D gf180mcu_fd_sc_mcu7t5v0__invz_4
*CAP
1 *805:ZN 0.000227482
2 *808:I 0
3 *807:ZN 0.000273188
4 *229:8 0.00050067
5 *229:8 *804:EN 0
6 *229:8 *807:I 0
7 *618:I *229:8 0
8 *636:I *805:ZN 1.70035e-05
9 *636:I *229:8 7.98033e-06
10 *637:I *805:ZN 1.4382e-06
11 *805:I *805:ZN 6.0012e-06
12 *887:D *229:8 0
13 *23:15 *805:ZN 1.74796e-05
14 *23:15 *229:8 7.191e-07
*RES
1 *807:ZN *229:8 6.12 
2 *229:8 *808:I 4.5 
3 *229:8 *805:ZN 5.94 
*END

*D_NET *230 0.00212016
*CONN
*I *804:I I *D gf180mcu_fd_sc_mcu7t5v0__invz_2
*I *808:ZN O *D gf180mcu_fd_sc_mcu7t5v0__clkinv_2
*CAP
1 *804:I 0.000315615
2 *808:ZN 0.000315615
3 *804:I *816:A1 0.000160699
4 *804:I *886:E 0.000110619
5 *804:I *887:E 0.00031725
6 *618:I *804:I 1.68677e-06
7 *887:D *804:I 0.000485906
8 *889:A1 *804:I 0.00022444
9 *16:7 *804:I 0.000134472
10 *53:108 *804:I 5.38526e-05
*RES
1 *808:ZN *804:I 22.86 
*END

*D_NET *231 0.00255334
*CONN
*I *812:A1 I *D gf180mcu_fd_sc_mcu7t5v0__or2_2
*I *811:Z O *D gf180mcu_fd_sc_mcu7t5v0__clkbuf_1
*CAP
1 *812:A1 0.000290828
2 *811:Z 0.000290828
3 *812:A1 *805:EN 1.71215e-05
4 *812:A1 *806:I 0.000496785
5 *812:A1 *807:I 1.10145e-05
6 *812:A1 *810:I 0.000109649
7 *812:A1 *816:A1 8.66027e-05
8 *812:A1 *818:I 0.000423958
9 *812:A1 *820:I 0.000280586
10 *603:I *812:A1 0.00048874
11 *16:7 *812:A1 5.72287e-05
*RES
1 *811:Z *812:A1 22.86 
*END

*D_NET *232 0.00938354
*CONN
*I *816:A1 I *D gf180mcu_fd_sc_mcu7t5v0__or2_2
*I *815:Z O *D gf180mcu_fd_sc_mcu7t5v0__clkbuf_1
*CAP
1 *816:A1 0.0025889
2 *815:Z 0.0025889
3 *816:A1 *805:EN 0.000299724
4 *816:A1 *807:EN 0.000106536
5 *816:A1 *810:I 9.84908e-05
6 *816:A1 *814:I 0
7 *816:A1 *815:I 0
8 *816:A1 *818:I 2.36152e-06
9 *816:A1 *821:I 3.32456e-05
10 *816:A1 *878:I 0.000570391
11 *816:A1 *879:EN 0.00016201
12 *816:A1 *879:ZN 5.35075e-05
13 *816:A1 *882:I 4.2195e-05
14 *636:I *816:A1 3.22351e-05
15 *736:EN *816:A1 0.000136332
16 *750:I *816:A1 0.000169927
17 *751:I *816:A1 0.00024055
18 *752:I *816:A1 0.000382866
19 *804:I *816:A1 0.000160699
20 *812:A1 *816:A1 8.66027e-05
21 *826:I *816:A1 0.000753013
22 *877:I *816:A1 6.9384e-06
23 *887:D *816:A1 0.000448049
24 *16:7 *816:A1 0
25 *19:13 *816:A1 0.000293601
26 *53:231 *816:A1 6.19076e-05
27 *76:72 *816:A1 1.3335e-05
28 *177:12 *816:A1 5.12126e-05
*RES
1 *815:Z *816:A1 40.41 
*END

*D_NET *233 0.000555665
*CONN
*I *804:EN I *D gf180mcu_fd_sc_mcu7t5v0__invz_2
*I *812:Z O *D gf180mcu_fd_sc_mcu7t5v0__or2_2
*CAP
1 *804:EN 0.000225045
2 *812:Z 0.000225045
3 *15:27 *804:EN 0.000105575
4 *229:8 *804:EN 0
*RES
1 *812:Z *804:EN 10.53 
*END

*D_NET *234 0.00156288
*CONN
*I *805:EN I *D gf180mcu_fd_sc_mcu7t5v0__invz_2
*I *816:Z O *D gf180mcu_fd_sc_mcu7t5v0__or2_2
*CAP
1 *805:EN 0.000159678
2 *816:Z 0.000159678
3 *805:EN *818:I 0.000346684
4 *805:EN *820:I 0.000111961
5 *802:I *805:EN 0.000346684
6 *812:A1 *805:EN 1.71215e-05
7 *816:A1 *805:EN 0.000299724
8 *19:13 *805:EN 0.000121351
*RES
1 *816:Z *805:EN 20.7 
*END

*D_NET *235 0.0026052
*CONN
*I *811:I I *D gf180mcu_fd_sc_mcu7t5v0__clkbuf_1
*I *810:Z O *D gf180mcu_fd_sc_mcu7t5v0__clkbuf_1
*CAP
1 *811:I 0.000361954
2 *810:Z 0.000361954
3 *811:I *807:EN 8.3864e-05
4 *811:I *813:E 0.000209215
5 *811:I *819:I 0.000683055
6 *811:I *821:I 0
7 *639:A1 *811:I 7.191e-07
8 *813:D *811:I 0.000294421
9 *813:RN *811:I 0.000158798
10 *873:A1 *811:I 0
11 *21:17 *811:I 9.65355e-06
12 *53:121 *811:I 4.06147e-05
13 *53:209 *811:I 0.000400957
*RES
1 *810:Z *811:I 22.86 
*END

*D_NET *236 0.00077215
*CONN
*I *815:I I *D gf180mcu_fd_sc_mcu7t5v0__clkbuf_1
*I *814:Z O *D gf180mcu_fd_sc_mcu7t5v0__clkbuf_1
*CAP
1 *815:I 0.000378538
2 *814:Z 0.000378538
3 *753:I *815:I 1.50737e-05
4 *816:A1 *815:I 0
5 *826:I *815:I 0
*RES
1 *814:Z *815:I 11.43 
*END

*D_NET *237 0.00378959
*CONN
*I *810:I I *D gf180mcu_fd_sc_mcu7t5v0__clkbuf_1
*I *812:A2 I *D gf180mcu_fd_sc_mcu7t5v0__or2_2
*I *817:I I *D gf180mcu_fd_sc_mcu7t5v0__inv_1
*I *809:Q O *D gf180mcu_fd_sc_mcu7t5v0__latrnq_1
*CAP
1 *810:I 0.000516394
2 *812:A2 0.000121385
3 *817:I 0.000130206
4 *809:Q 0.000130206
5 *237:22 0.000637779
6 *810:I *807:EN 0.000398044
7 *810:I *818:I 2.28255e-05
8 *810:I *819:I 1.61174e-05
9 *817:I *818:I 0.000213957
10 *603:I *810:I 0.00035741
11 *603:I *812:A2 9.0531e-06
12 *604:I *810:I 0
13 *604:I *817:I 2.36914e-05
14 *802:I *810:I 0.000288535
15 *812:A1 *810:I 0.000109649
16 *816:A1 *810:I 9.84908e-05
17 *873:A1 *817:I 0.000109569
18 *14:17 *817:I 0.000241656
19 *15:27 *812:A2 9.58906e-05
20 *15:27 *817:I 0.000262114
21 *16:7 *812:A2 6.61516e-06
*RES
1 *809:Q *817:I 20.34 
2 *809:Q *237:22 4.5 
3 *237:22 *812:A2 14.31 
4 *237:22 *810:I 9.72 
*END

*D_NET *238 0.0116383
*CONN
*I *814:I I *D gf180mcu_fd_sc_mcu7t5v0__clkbuf_1
*I *816:A2 I *D gf180mcu_fd_sc_mcu7t5v0__or2_2
*I *820:I I *D gf180mcu_fd_sc_mcu7t5v0__inv_1
*I *813:Q O *D gf180mcu_fd_sc_mcu7t5v0__latrnq_1
*CAP
1 *814:I 0.00272511
2 *816:A2 0
3 *820:I 0.000363323
4 *813:Q 0
5 *238:12 0.000584071
6 *238:6 0.00294586
7 *814:I *819:I 6.40324e-06
8 *814:I *821:I 0.000252915
9 *820:I *807:EN 0.000161479
10 *238:12 *807:EN 0.000467278
11 *238:12 *819:I 1.73092e-05
12 *619:I *814:I 0.000169805
13 *628:A1 *814:I 0.000379518
14 *752:I *814:I 0
15 *753:I *814:I 0.000221085
16 *786:D *814:I 6.1578e-05
17 *805:EN *820:I 0.000111961
18 *812:A1 *820:I 0.000280586
19 *816:A1 *814:I 0
20 *873:A1 *820:I 0
21 *873:A1 *238:12 0
22 *877:I *814:I 7.99701e-05
23 *16:7 *820:I 2.73548e-05
24 *19:13 *820:I 5.44277e-05
25 *53:121 *814:I 0.00221435
26 *53:121 *238:12 0.000299724
27 *53:231 *814:I 9.06417e-05
28 *68:10 *814:I 0
29 *68:29 *814:I 0
30 *76:72 *814:I 0.000123549
*RES
1 *813:Q *238:6 9 
2 *238:6 *238:12 6.66 
3 *238:12 *820:I 16.74 
4 *238:12 *816:A2 4.5 
5 *238:6 *814:I 31.5 
*END

*D_NET *239 0.00460723
*CONN
*I *818:I I *D gf180mcu_fd_sc_mcu7t5v0__clkbuf_1
*I *817:ZN O *D gf180mcu_fd_sc_mcu7t5v0__inv_1
*CAP
1 *818:I 0.000551903
2 *817:ZN 0.000551903
3 *818:I *803:I 2.78752e-05
4 *818:I *807:EN 3.73774e-06
5 *818:I *807:I 0.000103139
6 *604:I *818:I 0.000874894
7 *636:I *818:I 9.33275e-05
8 *802:I *818:I 0.000407594
9 *805:EN *818:I 0.000346684
10 *810:I *818:I 2.28255e-05
11 *812:A1 *818:I 0.000423958
12 *816:A1 *818:I 2.36152e-06
13 *817:I *818:I 0.000213957
14 *873:A1 *818:I 0.00019371
15 *16:7 *818:I 0.000789362
*RES
1 *817:ZN *818:I 26.19 
*END

*D_NET *240 0.0113409
*CONN
*I *821:I I *D gf180mcu_fd_sc_mcu7t5v0__clkbuf_1
*I *820:ZN O *D gf180mcu_fd_sc_mcu7t5v0__inv_1
*CAP
1 *821:I 0.00132898
2 *820:ZN 0.00132898
3 *821:I *813:E 0.000194669
4 *821:I *822:I 3.98088e-05
5 *821:I *888:I 1.0415e-05
6 *624:I *821:I 8.60867e-05
7 *811:I *821:I 0
8 *813:D *821:I 4.52014e-05
9 *814:I *821:I 0.000252915
10 *816:A1 *821:I 3.32456e-05
11 *825:I *821:I 0.000116925
12 *19:13 *821:I 0.00374095
13 *20:5 *821:I 3.0177e-06
14 *21:17 *821:I 0.000618913
15 *30:29 *821:I 0
16 *53:121 *821:I 0.00320488
17 *59:10 *821:I 0.000335957
18 *76:14 *821:I 0
*RES
1 *820:ZN *821:I 36.45 
*END

*D_NET *241 0.00416411
*CONN
*I *819:I I *D gf180mcu_fd_sc_mcu7t5v0__clkbuf_1
*I *818:Z O *D gf180mcu_fd_sc_mcu7t5v0__clkbuf_1
*CAP
1 *819:I 0.000592996
2 *818:Z 0.000592996
3 *819:I *806:EN 3.97987e-05
4 *819:I *807:EN 2.32355e-05
5 *819:I *813:E 0.000411068
6 *639:A1 *819:I 0.000154825
7 *802:I *819:I 0.000169515
8 *810:I *819:I 1.61174e-05
9 *811:I *819:I 0.000683055
10 *813:RN *819:I 0.000150744
11 *814:I *819:I 6.40324e-06
12 *873:A1 *819:I 0.000707646
13 *53:121 *819:I 0
14 *53:209 *819:I 0.000496785
15 *68:10 *819:I 0.000101615
16 *238:12 *819:I 1.73092e-05
*RES
1 *818:Z *819:I 25.65 
*END

*D_NET *242 0.00551522
*CONN
*I *822:I I *D gf180mcu_fd_sc_mcu7t5v0__clkbuf_1
*I *821:Z O *D gf180mcu_fd_sc_mcu7t5v0__clkbuf_1
*CAP
1 *822:I 0.000473394
2 *821:Z 0.000473394
3 *822:I *807:EN 3.12451e-05
4 clockp[0] *822:I 0.00123949
5 *620:I *822:I 0.00032797
6 *624:I *822:I 4.6613e-06
7 *635:I *822:I 0.000154581
8 *639:A2 *822:I 4.6613e-06
9 *821:I *822:I 3.98088e-05
10 *873:A1 *822:I 3.73774e-06
11 *23:15 *822:I 0.000281025
12 *76:14 *822:I 0.00014474
13 *76:27 *822:I 0.00233652
*RES
1 *821:Z *822:I 27.09 
*END

*D_NET *243 0.00230175
*CONN
*I *806:EN I *D gf180mcu_fd_sc_mcu7t5v0__invz_8
*I *819:Z O *D gf180mcu_fd_sc_mcu7t5v0__clkbuf_1
*CAP
1 *806:EN 0.000295099
2 *819:Z 0.000295099
3 *806:EN *813:E 9.98816e-05
4 *806:EN *245:12 0.000580975
5 *607:I *806:EN 3.01487e-05
6 *613:I *806:EN 0
7 *819:I *806:EN 3.97987e-05
8 *873:A1 *806:EN 0.000405063
9 *45:23 *806:EN 0
10 *53:135 *806:EN 0.000555687
*RES
1 *819:Z *806:EN 22.32 
*END

*D_NET *244 0.00370399
*CONN
*I *807:EN I *D gf180mcu_fd_sc_mcu7t5v0__invz_4
*I *822:Z O *D gf180mcu_fd_sc_mcu7t5v0__clkbuf_1
*CAP
1 *807:EN 0.00100442
2 *822:Z 0.00100442
3 *304:I *807:EN 0.000184544
4 *604:I *807:EN 8.68281e-06
5 *631:I *807:EN 1.4382e-06
6 *632:A1 *807:EN 0
7 *639:A2 *807:EN 0.000133887
8 *802:I *807:EN 0
9 *810:I *807:EN 0.000398044
10 *811:I *807:EN 8.3864e-05
11 *816:A1 *807:EN 0.000106536
12 *818:I *807:EN 3.73774e-06
13 *819:I *807:EN 2.32355e-05
14 *820:I *807:EN 0.000161479
15 *822:I *807:EN 3.12451e-05
16 *873:A1 *807:EN 0
17 *67:8 *807:EN 3.58337e-05
18 *68:10 *807:EN 5.53346e-05
19 *238:12 *807:EN 0.000467278
*RES
1 *822:Z *807:EN 17.37 
*END

*D_NET *245 0.00703569
*CONN
*I *813:E I *D gf180mcu_fd_sc_mcu7t5v0__latrnq_1
*I *809:E I *D gf180mcu_fd_sc_mcu7t5v0__latrnq_1
*I *823:Z O *D gf180mcu_fd_sc_mcu7t5v0__xor2_1
*CAP
1 *813:E 0.000413779
2 *809:E 0
3 *823:Z 0.000854589
4 *245:12 0.00126837
5 *608:I *245:12 3.01487e-05
6 *613:I *245:12 0
7 *806:EN *813:E 9.98816e-05
8 *806:EN *245:12 0.000580975
9 *809:D *813:E 2.14748e-05
10 *809:D *245:12 7.09972e-05
11 *811:I *813:E 0.000209215
12 *813:D *813:E 0.000106536
13 *819:I *813:E 0.000411068
14 *821:I *813:E 0.000194669
15 *12:13 *245:12 0
16 *14:17 *245:12 0.00249639
17 *21:17 *813:E 7.70237e-05
18 *45:23 *245:12 0
19 *53:95 *245:12 0
20 *53:135 *813:E 0.000101427
21 *53:135 *245:12 9.91544e-05
*RES
1 *823:Z *245:12 23.4 
2 *245:12 *809:E 4.5 
3 *245:12 *813:E 9.45 
*END

*D_NET *246 0.000597639
*CONN
*I *823:A2 I *D gf180mcu_fd_sc_mcu7t5v0__xor2_1
*I *801:Z O *D gf180mcu_fd_sc_mcu7t5v0__clkbuf_2
*CAP
1 *823:A2 0.000138103
2 *801:Z 0.000138103
3 *823:A1 *823:A2 3.22122e-05
4 *53:108 *823:A2 0.000233886
5 *101:14 *823:A2 5.53346e-05
*RES
1 *801:Z *823:A2 10.53 
*END

*D_NET *247 0.00371783
*CONN
*I *806:I I *D gf180mcu_fd_sc_mcu7t5v0__invz_8
*I *803:I I *D gf180mcu_fd_sc_mcu7t5v0__clkbuf_1
*I *807:I I *D gf180mcu_fd_sc_mcu7t5v0__invz_4
*I *802:Z O *D gf180mcu_fd_sc_mcu7t5v0__clkbuf_2
*CAP
1 *806:I 0.000290538
2 *803:I 0.00019104
3 *807:I 0.000545882
4 *802:Z 0
5 *247:4 0.000446384
6 *603:I *806:I 0.000184454
7 *636:I *803:I 0.000611712
8 *636:I *807:I 9.10759e-06
9 *637:I *803:I 0.000799893
10 *812:A1 *806:I 0.000496785
11 *812:A1 *807:I 1.10145e-05
12 *818:I *803:I 2.78752e-05
13 *818:I *807:I 0.000103139
14 *229:8 *807:I 0
*RES
1 *802:Z *247:4 4.5 
2 *247:4 *807:I 6.3 
3 *247:4 *803:I 7.38 
4 *807:I *806:I 11.61 
*END

*D_NET *248 0.00157371
*CONN
*I *832:I I *D gf180mcu_fd_sc_mcu7t5v0__invz_2
*I *830:Z O *D gf180mcu_fd_sc_mcu7t5v0__clkbuf_1
*CAP
1 *832:I 0.00066984
2 *830:Z 0.00066984
3 *649:I *832:I 0.000150111
4 *758:EN *832:I 8.39199e-05
5 *101:34 *832:I 0
*RES
1 *830:Z *832:I 13.59 
*END

*D_NET *249 0.00312658
*CONN
*I *832:ZN O *D gf180mcu_fd_sc_mcu7t5v0__invz_2
*I *835:I I *D gf180mcu_fd_sc_mcu7t5v0__clkinv_2
*I *834:ZN O *D gf180mcu_fd_sc_mcu7t5v0__invz_4
*CAP
1 *832:ZN 2.98232e-05
2 *835:I 0.000190876
3 *834:ZN 2.88052e-05
4 *249:8 0.000249504
5 *835:I *832:EN 0.000233987
6 *835:I *837:I 0.000854526
7 *835:I *855:I 0.000160958
8 *249:8 *837:I 0.00023711
9 *249:8 *855:I 4.24123e-05
10 *649:I *832:ZN 0.000496776
11 *650:I *832:ZN 0.000496776
12 *652:D *835:I 5.78854e-06
13 *828:I *835:I 9.92342e-05
*RES
1 *834:ZN *249:8 9.63 
2 *249:8 *835:I 12.06 
3 *249:8 *832:ZN 10.35 
*END

*D_NET *250 0.00131984
*CONN
*I *831:I I *D gf180mcu_fd_sc_mcu7t5v0__invz_2
*I *835:ZN O *D gf180mcu_fd_sc_mcu7t5v0__clkinv_2
*CAP
1 *831:I 0.000172112
2 *835:ZN 0.000172112
3 *831:I *833:EN 2.59527e-05
4 *831:I *267:8 8.68281e-06
5 *652:D *831:I 3.12451e-05
6 *828:I *831:I 3.01487e-05
7 *27:21 *831:I 0.000518361
8 *123:10 *831:I 0.000137825
9 *123:12 *831:I 0.000223398
*RES
1 *835:ZN *831:I 20.25 
*END

*D_NET *251 0.012759
*CONN
*I *839:A1 I *D gf180mcu_fd_sc_mcu7t5v0__or2_2
*I *838:Z O *D gf180mcu_fd_sc_mcu7t5v0__clkbuf_1
*CAP
1 *839:A1 0.00130868
2 *838:Z 0.00130868
3 *839:A1 *837:I 3.58627e-05
4 *839:A1 *838:I 4.30695e-05
5 *839:A1 *848:I 3.54696e-05
6 *839:A1 *853:I 0.000805798
7 *839:A1 *855:I 1.32193e-05
8 *839:A1 *855:ZN 0.000176264
9 *839:A1 *272:18 6.36325e-06
10 *839:A1 *287:12 0.000270679
11 *671:RN *839:A1 0.000381917
12 *685:A2 *839:A1 0.000114302
13 *694:E *839:A1 7.191e-07
14 *694:RN *839:A1 0.000391052
15 *698:E *839:A1 2.65444e-06
16 *708:A1 *839:A1 0.000325412
17 *708:A2 *839:A1 0.000126556
18 *754:A1 *839:A1 5.83232e-05
19 *777:A2 *839:A1 0.00135804
20 *26:13 *839:A1 0.00343773
21 *27:21 *839:A1 9.08505e-05
22 *28:13 *839:A1 0.00236813
23 *53:252 *839:A1 9.92342e-05
*RES
1 *838:Z *839:A1 48.69 
*END

*D_NET *252 0.00414316
*CONN
*I *843:A1 I *D gf180mcu_fd_sc_mcu7t5v0__or2_2
*I *842:Z O *D gf180mcu_fd_sc_mcu7t5v0__clkbuf_1
*CAP
1 *843:A1 0.000843383
2 *842:Z 0.000843383
3 *843:A1 *831:EN 3.94638e-05
4 *843:A1 *848:I 3.88067e-05
5 *843:A1 *855:EN 5.30888e-06
6 *843:A1 *859:E 0.000113947
7 *843:A1 *864:I 9.29472e-05
8 *843:A1 *866:A1 0.000332219
9 *843:A1 *867:I 0
10 *843:A1 *873:A2 0.000237866
11 *322:I *843:A1 4.18928e-05
12 *605:A1 *843:A1 1.79733e-05
13 *851:I *843:A1 0.000176088
14 *859:D *843:A1 3.98088e-05
15 *859:RN *843:A1 0.000558359
16 *13:13 *843:A1 0.000433343
17 *25:17 *843:A1 0.000328366
*RES
1 *842:Z *843:A1 27.27 
*END

*D_NET *253 0.00199468
*CONN
*I *831:EN I *D gf180mcu_fd_sc_mcu7t5v0__invz_2
*I *839:Z O *D gf180mcu_fd_sc_mcu7t5v0__or2_2
*CAP
1 *831:EN 0.000268597
2 *839:Z 0.000268597
3 *831:EN *848:I 0.000346684
4 *831:EN *272:18 0.000536632
5 *843:A1 *831:EN 3.94638e-05
6 *27:21 *831:EN 0.000534709
*RES
1 *839:Z *831:EN 21.15 
*END

*D_NET *254 0.0024417
*CONN
*I *832:EN I *D gf180mcu_fd_sc_mcu7t5v0__invz_2
*I *843:Z O *D gf180mcu_fd_sc_mcu7t5v0__or2_2
*CAP
1 *832:EN 0.000513515
2 *843:Z 0.000513515
3 *832:EN *834:EN 1.36414e-05
4 *832:EN *837:I 2.12098e-05
5 *832:EN *850:A2 2.29643e-05
6 *832:EN *855:I 0.000643597
7 *650:I *832:EN 0
8 *652:D *832:EN 0.000146515
9 *766:A1 *832:EN 2.30981e-05
10 *828:I *832:EN 0.000166342
11 *835:I *832:EN 0.000233987
12 *850:A1 *832:EN 0
13 *28:13 *832:EN 0.000143313
*RES
1 *843:Z *832:EN 23.04 
*END

*D_NET *255 0.00142095
*CONN
*I *838:I I *D gf180mcu_fd_sc_mcu7t5v0__clkbuf_1
*I *837:Z O *D gf180mcu_fd_sc_mcu7t5v0__clkbuf_1
*CAP
1 *838:I 0.000339024
2 *837:Z 0.000339024
3 *838:I *837:I 3.87151e-05
4 *838:I *874:A1 0
5 *838:I *874:A2 0
6 *313:I *838:I 8.93715e-05
7 *839:A1 *838:I 4.30695e-05
8 *28:13 *838:I 0.00057175
*RES
1 *837:Z *838:I 12.6 
*END

*D_NET *256 0.0015104
*CONN
*I *842:I I *D gf180mcu_fd_sc_mcu7t5v0__clkbuf_1
*I *841:Z O *D gf180mcu_fd_sc_mcu7t5v0__clkbuf_1
*CAP
1 *842:I 0.000172084
2 *841:Z 0.000172084
3 *842:I *841:I 4.45114e-05
4 *842:I *854:EN 0.000433797
5 *321:I *842:I 0.000455757
6 *851:I *842:I 0.000225322
7 *859:D *842:I 6.84426e-06
*RES
1 *841:Z *842:I 20.7 
*END

*D_NET *257 0.0125572
*CONN
*I *837:I I *D gf180mcu_fd_sc_mcu7t5v0__clkbuf_1
*I *839:A2 I *D gf180mcu_fd_sc_mcu7t5v0__or2_2
*I *844:I I *D gf180mcu_fd_sc_mcu7t5v0__inv_1
*I *836:Q O *D gf180mcu_fd_sc_mcu7t5v0__latrnq_1
*CAP
1 *837:I 0.00223403
2 *839:A2 0.000288968
3 *844:I 0
4 *836:Q 0.000298483
5 *257:19 0.00255749
6 *257:12 0.000332973
7 *837:I *834:EN 0.000396255
8 *837:I *848:I 0
9 *837:I *850:A2 7.191e-07
10 *837:I *855:I 0.000276014
11 *837:I *874:A2 2.89427e-06
12 *839:A2 *834:EN 0.00092587
13 *839:A2 *845:I 0.00039
14 *839:A2 *855:I 7.69936e-06
15 *257:12 *855:I 3.12451e-05
16 *652:D *837:I 4.53289e-05
17 *698:D *837:I 1.89025e-05
18 *698:E *837:I 0.000428433
19 *731:A1 *837:I 0.000349899
20 *760:I *837:I 1.70736e-05
21 *777:A2 *837:I 0.000148236
22 *828:I *837:I 0.000229402
23 *832:EN *837:I 2.12098e-05
24 *835:I *837:I 0.000854526
25 *838:I *837:I 3.87151e-05
26 *839:A1 *837:I 3.58627e-05
27 *14:17 *837:I 1.0345e-05
28 *25:17 *839:A2 0.000596667
29 *26:13 *839:A2 0.00050293
30 *27:21 *257:12 0.00011604
31 *28:13 *257:12 0.00106186
32 *30:29 *837:I 0
33 *56:22 *837:I 0
34 *99:20 *837:I 2.40933e-06
35 *189:8 *837:I 8.32325e-05
36 *205:16 *837:I 1.63547e-05
37 *249:8 *837:I 0.00023711
*RES
1 *836:Q *257:12 16.74 
2 *257:12 *844:I 4.5 
3 *257:12 *257:19 0.27 
4 *257:19 *839:A2 17.82 
5 *257:19 *837:I 31.77 
*END

*D_NET *258 0.00629878
*CONN
*I *847:I I *D gf180mcu_fd_sc_mcu7t5v0__inv_1
*I *843:A2 I *D gf180mcu_fd_sc_mcu7t5v0__or2_2
*I *841:I I *D gf180mcu_fd_sc_mcu7t5v0__clkbuf_1
*I *840:Q O *D gf180mcu_fd_sc_mcu7t5v0__latrnq_1
*CAP
1 *847:I 0.000174231
2 *843:A2 8.33433e-05
3 *841:I 0.000792098
4 *840:Q 5.34024e-05
5 *258:10 0.000981586
6 *258:6 0.000333779
7 *841:I *854:EN 0.000368349
8 *841:I *862:A2 0.000657584
9 *841:I *867:I 0.000629528
10 *841:I *265:10 0.000136688
11 *841:I *271:26 3.96404e-05
12 *843:A2 *850:A2 1.62765e-05
13 *843:A2 *265:10 5.62435e-06
14 *847:I *848:I 0.000379731
15 *258:10 *848:I 1.92092e-05
16 *604:I *841:I 0.000559764
17 *605:A1 *847:I 4.44038e-05
18 *605:A1 *258:10 2.37695e-05
19 *842:I *841:I 4.45114e-05
20 *851:I *841:I 0.000180729
21 *859:RN *841:I 8.69931e-05
22 *873:A1 *841:I 0.000161498
23 *28:13 *841:I 0.000388581
24 *28:13 *843:A2 6.90528e-05
25 *53:151 *841:I 6.84043e-05
*RES
1 *840:Q *258:6 4.95 
2 *258:6 *258:10 5.13 
3 *258:10 *841:I 19.62 
4 *258:10 *843:A2 9.63 
5 *258:6 *847:I 6.39 
*END

*D_NET *259 0.0039435
*CONN
*I *845:I I *D gf180mcu_fd_sc_mcu7t5v0__clkbuf_1
*I *844:ZN O *D gf180mcu_fd_sc_mcu7t5v0__inv_1
*CAP
1 *845:I 0.000796877
2 *844:ZN 0.000796877
3 *845:I *834:EN 0.000380493
4 *845:I *846:I 0.000409828
5 *845:I *848:I 7.191e-07
6 *845:I *855:I 0.000354728
7 *845:I *855:ZN 7.32506e-05
8 *845:I *857:I 0.000478005
9 *845:I *858:I 0
10 *845:I *287:12 0.000262725
11 *839:A2 *845:I 0.00039
12 *83:8 *845:I 0
*RES
1 *844:ZN *845:I 16.92 
*END

*D_NET *260 0.00393445
*CONN
*I *848:I I *D gf180mcu_fd_sc_mcu7t5v0__clkbuf_1
*I *847:ZN O *D gf180mcu_fd_sc_mcu7t5v0__inv_1
*CAP
1 *848:I 0.00119313
2 *847:ZN 0.00119313
3 *848:I *855:I 5.88884e-05
4 *848:I *855:ZN 0.000242172
5 *848:I *858:I 0.000215991
6 *848:I *864:I 0
7 *848:I *870:I 0
8 *848:I *269:8 8.49208e-05
9 *828:I *848:I 0.000125605
10 *831:EN *848:I 0.000346684
11 *837:I *848:I 0
12 *839:A1 *848:I 3.54696e-05
13 *843:A1 *848:I 3.88067e-05
14 *845:I *848:I 7.191e-07
15 *847:I *848:I 0.000379731
16 *258:10 *848:I 1.92092e-05
*RES
1 *847:ZN *848:I 17.82 
*END

*D_NET *261 0.00177945
*CONN
*I *846:I I *D gf180mcu_fd_sc_mcu7t5v0__clkbuf_1
*I *845:Z O *D gf180mcu_fd_sc_mcu7t5v0__clkbuf_1
*CAP
1 *846:I 0.000370825
2 *845:Z 0.000370825
3 *846:I *834:EN 3.01487e-05
4 *656:I *846:I 0.000597829
5 *845:I *846:I 0.000409828
6 *83:8 *846:I 0
*RES
1 *845:Z *846:I 12.6 
*END

*D_NET *262 0.000299673
*CONN
*I *849:I I *D gf180mcu_fd_sc_mcu7t5v0__clkbuf_1
*I *848:Z O *D gf180mcu_fd_sc_mcu7t5v0__clkbuf_1
*CAP
1 *849:I 0.000149837
2 *848:Z 0.000149837
*RES
1 *848:Z *849:I 9.99 
*END

*D_NET *263 0.00314879
*CONN
*I *833:EN I *D gf180mcu_fd_sc_mcu7t5v0__invz_8
*I *846:Z O *D gf180mcu_fd_sc_mcu7t5v0__clkbuf_1
*CAP
1 *833:EN 0.000679666
2 *846:Z 0.000679666
3 *833:EN *834:EN 5.32034e-05
4 *833:EN *856:I 4.0961e-06
5 *833:EN *857:EN 0.000161479
6 *652:D *833:EN 0.000914108
7 *656:I *833:EN 0.000287269
8 *660:I *833:EN 6.83723e-05
9 *828:I *833:EN 1.56942e-05
10 *831:I *833:EN 2.59527e-05
11 *852:I *833:EN 4.34834e-05
12 *90:8 *833:EN 0.000206266
13 *123:12 *833:EN 9.53567e-06
*RES
1 *846:Z *833:EN 15.12 
*END

*D_NET *264 0.00367656
*CONN
*I *834:EN I *D gf180mcu_fd_sc_mcu7t5v0__invz_4
*I *849:Z O *D gf180mcu_fd_sc_mcu7t5v0__clkbuf_1
*CAP
1 *834:EN 0.000654611
2 *849:Z 0.000654611
3 *834:EN *850:A2 0
4 *834:EN *857:EN 3.07932e-05
5 *656:I *834:EN 4.39538e-05
6 *766:A1 *834:EN 0
7 *828:I *834:EN 0.000165565
8 *832:EN *834:EN 1.36414e-05
9 *833:EN *834:EN 5.32034e-05
10 *837:I *834:EN 0.000396255
11 *839:A2 *834:EN 0.00092587
12 *845:I *834:EN 0.000380493
13 *846:I *834:EN 3.01487e-05
14 *850:A1 *834:EN 1.61174e-05
15 *852:I *834:EN 0.000178842
16 *123:12 *834:EN 0.000132459
*RES
1 *849:Z *834:EN 16.38 
*END

*D_NET *265 0.00349111
*CONN
*I *840:E I *D gf180mcu_fd_sc_mcu7t5v0__latrnq_1
*I *836:E I *D gf180mcu_fd_sc_mcu7t5v0__latrnq_1
*I *850:Z O *D gf180mcu_fd_sc_mcu7t5v0__xor2_1
*CAP
1 *840:E 3.39458e-06
2 *836:E 4.74505e-05
3 *850:Z 0.000574907
4 *265:10 0.000625752
5 *265:10 *850:A2 0.000464319
6 *322:I *836:E 0.000362751
7 *763:D *836:E 9.85004e-05
8 *763:D *840:E 0.000142047
9 *765:I *265:10 8.65553e-07
10 *841:I *265:10 0.000136688
11 *843:A2 *265:10 5.62435e-06
12 *28:13 *265:10 0
13 *30:29 *265:10 0.000220467
14 *53:147 *836:E 6.2979e-05
15 *53:147 *840:E 0.000169524
16 *53:149 *836:E 0.000337978
17 *53:151 *836:E 0.000237866
*RES
1 *850:Z *265:10 18.09 
2 *265:10 *836:E 6.21 
3 *265:10 *840:E 4.95 
*END

*D_NET *266 0.00119381
*CONN
*I *850:A2 I *D gf180mcu_fd_sc_mcu7t5v0__xor2_1
*I *828:Z O *D gf180mcu_fd_sc_mcu7t5v0__clkbuf_2
*CAP
1 *850:A2 0.000278711
2 *828:Z 0.000278711
3 *828:I *850:A2 0.000123215
4 *832:EN *850:A2 2.29643e-05
5 *834:EN *850:A2 0
6 *837:I *850:A2 7.191e-07
7 *843:A2 *850:A2 1.62765e-05
8 *850:A1 *850:A2 3.44834e-06
9 *28:13 *850:A2 5.44299e-06
10 *265:10 *850:A2 0.000464319
*RES
1 *828:Z *850:A2 19.8 
*END

*D_NET *267 0.00293674
*CONN
*I *830:I I *D gf180mcu_fd_sc_mcu7t5v0__clkbuf_1
*I *833:I I *D gf180mcu_fd_sc_mcu7t5v0__invz_8
*I *834:I I *D gf180mcu_fd_sc_mcu7t5v0__invz_4
*I *829:Z O *D gf180mcu_fd_sc_mcu7t5v0__clkbuf_2
*CAP
1 *830:I 2.20207e-05
2 *833:I 0
3 *834:I 0.000195028
4 *829:Z 0
5 *267:8 0.000368842
6 *267:4 0.000195835
7 *830:I *272:18 0.000744717
8 *650:I *834:I 0.000171278
9 *650:I *267:8 0.000423921
10 *652:D *834:I 4.69392e-05
11 *652:D *267:8 1.28932e-05
12 *831:I *267:8 8.68281e-06
13 *831:ZN *267:8 1.86887e-06
14 *27:21 *830:I 0.000744717
*RES
1 *829:Z *267:4 4.5 
2 *267:4 *267:8 1.62 
3 *267:8 *834:I 6.12 
4 *267:8 *833:I 4.5 
5 *267:4 *830:I 15.39 
*END

*D_NET *268 0.0141146
*CONN
*I *855:I I *D gf180mcu_fd_sc_mcu7t5v0__invz_2
*I *853:Z O *D gf180mcu_fd_sc_mcu7t5v0__clkbuf_1
*CAP
1 *855:I 0.00188317
2 *853:Z 0.00188317
3 *855:I *855:ZN 1.27595e-05
4 *855:I *864:I 0.000834763
5 *855:I *865:I 2.14748e-05
6 *855:I *272:18 0.000180131
7 *855:I *287:12 0
8 *674:A1 *855:I 7.191e-07
9 *688:I *855:I 5.60661e-06
10 *689:I *855:I 0.000138204
11 *690:ZN *855:I 1.5431e-05
12 *691:I *855:I 0.000755935
13 *692:I *855:I 0.000339179
14 *695:I *855:I 0.000538909
15 *702:I *855:I 0.000893051
16 *703:I *855:I 5.11919e-06
17 *704:I *855:I 8.36738e-05
18 *832:EN *855:I 0.000643597
19 *835:I *855:I 0.000160958
20 *837:I *855:I 0.000276014
21 *839:A1 *855:I 1.32193e-05
22 *839:A2 *855:I 7.69936e-06
23 *845:I *855:I 0.000354728
24 *848:I *855:I 5.88884e-05
25 *27:21 *855:I 0
26 *28:13 *855:I 0.003825
27 *134:19 *855:I 0.000653857
28 *143:16 *855:I 0.00045566
29 *249:8 *855:I 4.24123e-05
30 *257:12 *855:I 3.12451e-05
*RES
1 *853:Z *855:I 43.92 
*END

*D_NET *269 0.0166813
*CONN
*I *855:ZN O *D gf180mcu_fd_sc_mcu7t5v0__invz_2
*I *858:I I *D gf180mcu_fd_sc_mcu7t5v0__clkinv_2
*I *857:ZN O *D gf180mcu_fd_sc_mcu7t5v0__invz_4
*CAP
1 *855:ZN 0.000508026
2 *858:I 0.00176814
3 *857:ZN 4.4763e-05
4 *269:8 0.00232093
5 *855:ZN *857:I 0.000428122
6 *855:ZN *860:I 0.000155161
7 *855:ZN *287:12 0.000314018
8 *858:I *854:I 2.61158e-05
9 *858:I *856:EN 0.00033414
10 *858:I *868:I 0.00588663
11 *858:I *870:I 2.6796e-05
12 *858:I *871:I 0.00135467
13 *858:I *279:16 0.000848098
14 *269:8 *870:I 4.10827e-06
15 *646:EN *858:I 0.000351727
16 *661:I *858:I 0.000882791
17 *670:I *858:I 2.89685e-05
18 *839:A1 *855:ZN 0.000176264
19 *845:I *855:ZN 7.32506e-05
20 *845:I *858:I 0
21 *848:I *855:ZN 0.000242172
22 *848:I *858:I 0.000215991
23 *848:I *269:8 8.49208e-05
24 *855:I *855:ZN 1.27595e-05
25 *24:15 *855:ZN 0.000394113
26 *83:8 *858:I 1.0415e-05
27 *104:10 *858:I 0.000188208
*RES
1 *857:ZN *269:8 5.04 
2 *269:8 *858:I 47.7 
3 *269:8 *855:ZN 18.72 
*END

*D_NET *270 0.0159098
*CONN
*I *854:I I *D gf180mcu_fd_sc_mcu7t5v0__invz_2
*I *858:ZN O *D gf180mcu_fd_sc_mcu7t5v0__clkinv_2
*CAP
1 *854:I 0.000963749
2 *858:ZN 0.000963749
3 *854:I *856:EN 9.29745e-05
4 *854:I *861:I 0.000127736
5 *854:I *868:I 0
6 *854:I *271:26 0.0050114
7 *641:I *854:I 4.03719e-05
8 *643:EN *854:I 0.000546617
9 *645:EN *854:I 0.000529552
10 *650:I *854:I 0.00168285
11 *651:A1 *854:I 1.17934e-05
12 *676:I *854:I 0.000604092
13 *677:I *854:I 0.000165108
14 *678:A1 *854:I 0.00136593
15 *678:A2 *854:I 0.000356703
16 *683:I *854:I 0.0022608
17 *684:I *854:I 0.000645317
18 *858:I *854:I 2.61158e-05
19 *83:8 *854:I 9.04462e-05
20 *113:12 *854:I 0.000424464
*RES
1 *858:ZN *854:I 42.12 
*END

*D_NET *271 0.0150749
*CONN
*I *862:A1 I *D gf180mcu_fd_sc_mcu7t5v0__or2_2
*I *861:Z O *D gf180mcu_fd_sc_mcu7t5v0__clkbuf_1
*CAP
1 *862:A1 3.44897e-05
2 *861:Z 0.00172289
3 *271:26 0.00175738
4 *862:A1 *854:EN 0
5 *271:26 *856:EN 0.00180941
6 *271:26 *862:A2 7.55765e-06
7 *271:26 *279:16 0.000338902
8 *321:I *271:26 1.91657e-05
9 *650:I *271:26 0.000359365
10 *667:I *271:26 1.50596e-05
11 *676:I *271:26 0.000604092
12 *677:I *271:26 0.000727637
13 *678:A1 *271:26 0.000739587
14 *678:A2 *271:26 0.000385445
15 *683:I *271:26 0.000409501
16 *684:I *271:26 0.00064533
17 *841:I *271:26 3.96404e-05
18 *854:I *271:26 0.0050114
19 *113:12 *271:26 0.000448058
*RES
1 *861:Z *271:26 49.95 
2 *271:26 *862:A1 4.77 
*END

*D_NET *272 0.0176623
*CONN
*I *866:A1 I *D gf180mcu_fd_sc_mcu7t5v0__or2_2
*I *865:Z O *D gf180mcu_fd_sc_mcu7t5v0__clkbuf_1
*CAP
1 *866:A1 0.000228992
2 *865:Z 0.00138744
3 *272:18 0.00161643
4 *866:A1 *855:EN 0.00013069
5 *866:A1 *864:I 1.0415e-05
6 *866:A1 *278:17 0.00027566
7 *272:18 *853:I 0.00651421
8 *272:18 *857:EN 4.44491e-05
9 *272:18 *860:I 0
10 *272:18 *864:I 0.000320262
11 *272:18 *287:12 0.00105263
12 *674:A1 *272:18 0.00136072
13 *691:EN *272:18 6.2083e-06
14 *691:I *272:18 0
15 *694:D *272:18 0.000555265
16 *702:I *272:18 0
17 *830:I *272:18 0.000744717
18 *831:EN *272:18 0.000536632
19 *831:ZN *272:18 0.000510653
20 *839:A1 *272:18 6.36325e-06
21 *843:A1 *866:A1 0.000332219
22 *855:I *272:18 0.000180131
23 *13:13 *866:A1 0.000171937
24 *26:13 *272:18 9.6737e-05
25 *27:21 *272:18 0.00157958
26 *134:19 *272:18 0
*RES
1 *865:Z *272:18 48.51 
2 *272:18 *866:A1 16.2 
*END

*D_NET *273 0.00128118
*CONN
*I *854:EN I *D gf180mcu_fd_sc_mcu7t5v0__invz_2
*I *862:Z O *D gf180mcu_fd_sc_mcu7t5v0__or2_2
*CAP
1 *854:EN 0.000233329
2 *862:Z 0.000233329
3 *854:EN *862:A2 0
4 *841:I *854:EN 0.000368349
5 *842:I *854:EN 0.000433797
6 *851:I *854:EN 1.23715e-05
7 *862:A1 *854:EN 0
*RES
1 *862:Z *854:EN 11.79 
*END

*D_NET *274 0.00137479
*CONN
*I *855:EN I *D gf180mcu_fd_sc_mcu7t5v0__invz_2
*I *866:Z O *D gf180mcu_fd_sc_mcu7t5v0__or2_2
*CAP
1 *855:EN 0.000351968
2 *866:Z 0.000351968
3 *855:EN *866:A2 0.00014525
4 *855:EN *867:I 0.00037349
5 *605:A1 *855:EN 1.61174e-05
6 *843:A1 *855:EN 5.30888e-06
7 *866:A1 *855:EN 0.00013069
*RES
1 *866:Z *855:EN 12.6 
*END

*D_NET *275 0.000906181
*CONN
*I *861:I I *D gf180mcu_fd_sc_mcu7t5v0__clkbuf_1
*I *860:Z O *D gf180mcu_fd_sc_mcu7t5v0__clkbuf_1
*CAP
1 *861:I 0.000247406
2 *860:Z 0.000247406
3 *861:I *869:I 0.000283633
4 *684:I *861:I 0
5 *854:I *861:I 0.000127736
*RES
1 *860:Z *861:I 11.25 
*END

*D_NET *276 0.00134647
*CONN
*I *865:I I *D gf180mcu_fd_sc_mcu7t5v0__clkbuf_1
*I *864:Z O *D gf180mcu_fd_sc_mcu7t5v0__clkbuf_1
*CAP
1 *865:I 0.000443954
2 *864:Z 0.000443954
3 *865:I *853:I 0.000327108
4 *865:I *864:I 6.16286e-05
5 *865:I *872:I 4.83522e-05
6 *855:I *865:I 2.14748e-05
*RES
1 *864:Z *865:I 12.87 
*END

*D_NET *277 0.0197551
*CONN
*I *860:I I *D gf180mcu_fd_sc_mcu7t5v0__clkbuf_1
*I *867:I I *D gf180mcu_fd_sc_mcu7t5v0__inv_1
*I *862:A2 I *D gf180mcu_fd_sc_mcu7t5v0__or2_2
*I *859:Q O *D gf180mcu_fd_sc_mcu7t5v0__latrnq_1
*CAP
1 *860:I 0.00163329
2 *867:I 0.00123514
3 *862:A2 0.000169625
4 *859:Q 0
5 *277:10 0.00151412
6 *277:6 0.00174265
7 *860:I *857:EN 0.00120671
8 *860:I *871:I 0.0014833
9 *860:I *872:I 1.17652e-05
10 *862:A2 *870:I 0
11 *867:I *866:A2 2.09122e-05
12 *867:I *870:I 0
13 *867:I *278:17 0
14 *321:I *277:10 0
15 *597:I *867:I 0.000377739
16 *599:EN *867:I 3.12451e-05
17 *601:I *867:I 9.09867e-05
18 *603:I *867:I 0
19 *604:I *867:I 0.000816844
20 *605:A1 *867:I 0.000424719
21 *642:I *860:I 0.00177564
22 *653:I *860:I 0.000227863
23 *655:A2 *860:I 0.000214724
24 *656:I *860:I 0.000164228
25 *665:I *860:I 0.000765237
26 *841:I *862:A2 0.000657584
27 *841:I *867:I 0.000629528
28 *843:A1 *867:I 0
29 *854:EN *862:A2 0
30 *855:EN *867:I 0.00037349
31 *855:ZN *860:I 0.000155161
32 *9:9 *867:I 0.000102973
33 *24:15 *860:I 0.000507554
34 *24:15 *277:10 0.000283225
35 *52:14 *867:I 0.000591262
36 *81:10 *860:I 0.00055461
37 *90:27 *860:I 0.000752893
38 *124:8 *860:I 0.000737008
39 *124:19 *860:I 0.000495534
40 *271:26 *862:A2 7.55765e-06
41 *272:18 *860:I 0
*RES
1 *859:Q *277:6 9 
2 *277:6 *277:10 6.03 
3 *277:10 *862:A2 6.48 
4 *277:10 *867:I 27.72 
5 *277:6 *860:I 34.56 
*END

*D_NET *278 0.0175313
*CONN
*I *864:I I *D gf180mcu_fd_sc_mcu7t5v0__clkbuf_1
*I *870:I I *D gf180mcu_fd_sc_mcu7t5v0__inv_1
*I *866:A2 I *D gf180mcu_fd_sc_mcu7t5v0__or2_2
*I *863:Q O *D gf180mcu_fd_sc_mcu7t5v0__latrnq_1
*CAP
1 *864:I 0.00136742
2 *870:I 0.000184403
3 *866:A2 0.000165171
4 *863:Q 0
5 *278:17 0.00171601
6 *278:4 0.000329359
7 *864:I *853:I 0.000755685
8 *864:I *857:EN 0.000237134
9 *308:I *864:I 0.00052094
10 *652:E *864:I 0.000797052
11 *660:I *864:I 2.81034e-05
12 *666:I *864:I 0.000129087
13 *671:D *864:I 0.000178725
14 *673:I *864:I 0.00164621
15 *674:A2 *864:I 0.000268422
16 *680:I *864:I 0.000317476
17 *685:A2 *864:I 7.2219e-05
18 *696:I *864:I 0.000296722
19 *843:A1 *864:I 9.29472e-05
20 *848:I *864:I 0
21 *848:I *870:I 0
22 *855:EN *866:A2 0.00014525
23 *855:I *864:I 0.000834763
24 *858:I *870:I 2.6796e-05
25 *862:A2 *870:I 0
26 *865:I *864:I 6.16286e-05
27 *866:A1 *864:I 1.0415e-05
28 *866:A1 *278:17 0.00027566
29 *867:I *866:A2 2.09122e-05
30 *867:I *870:I 0
31 *867:I *278:17 0
32 *13:13 *864:I 0.00467029
33 *25:17 *864:I 0.000210652
34 *98:10 *864:I 0.000583059
35 *112:12 *864:I 0.00119485
36 *121:10 *864:I 6.95385e-05
37 *121:25 *864:I 0
38 *269:8 *870:I 4.10827e-06
39 *272:18 *864:I 0.000320262
*RES
1 *863:Q *278:4 4.5 
2 *278:4 *866:A2 6.12 
3 *278:4 *278:17 1.89 
4 *278:17 *870:I 5.58 
5 *278:17 *864:I 39.06 
*END

*D_NET *279 0.0197162
*CONN
*I *868:I I *D gf180mcu_fd_sc_mcu7t5v0__clkbuf_1
*I *867:ZN O *D gf180mcu_fd_sc_mcu7t5v0__inv_1
*CAP
1 *868:I 0.000750906
2 *867:ZN 0.00365776
3 *279:16 0.00440866
4 *868:I *856:EN 0.000853846
5 *868:I *871:I 0.000176347
6 *279:16 *856:EN 0.000392557
7 *279:16 *871:I 6.92442e-06
8 *647:I *868:I 0.000540928
9 *661:I *279:16 0.000880222
10 *669:EN *868:I 0.000390584
11 *670:I *868:I 4.46396e-05
12 *854:I *868:I 0
13 *858:I *868:I 0.00588663
14 *858:I *279:16 0.000848098
15 *99:10 *868:I 0.000515921
16 *99:20 *868:I 2.32816e-05
17 *271:26 *279:16 0.000338902
*RES
1 *867:ZN *279:16 39.96 
2 *279:16 *868:I 25.92 
*END

*D_NET *280 0.0138288
*CONN
*I *871:I I *D gf180mcu_fd_sc_mcu7t5v0__clkbuf_1
*I *870:ZN O *D gf180mcu_fd_sc_mcu7t5v0__inv_1
*CAP
1 *871:I 0.00205848
2 *870:ZN 0.00205848
3 *871:I *857:EN 0
4 *871:I *872:I 5.66716e-05
5 *642:I *871:I 0.000115487
6 *644:I *871:I 0.00151333
7 *646:EN *871:I 0.000623806
8 *653:I *871:I 0.000526079
9 *655:A2 *871:I 0.000437294
10 *665:I *871:I 0.000724302
11 *669:EN *871:I 2.55518e-05
12 *670:I *871:I 0.000808703
13 *858:I *871:I 0.00135467
14 *860:I *871:I 0.0014833
15 *868:I *871:I 0.000176347
16 *104:10 *871:I 0.000658151
17 *124:8 *871:I 0.000734448
18 *124:19 *871:I 0.000466792
19 *279:16 *871:I 6.92442e-06
*RES
1 *870:ZN *871:I 45 
*END

*D_NET *281 0.00108426
*CONN
*I *869:I I *D gf180mcu_fd_sc_mcu7t5v0__clkbuf_1
*I *868:Z O *D gf180mcu_fd_sc_mcu7t5v0__clkbuf_1
*CAP
1 *869:I 0.000400314
2 *868:Z 0.000400314
3 *869:I *856:EN 0
4 *861:I *869:I 0.000283633
*RES
1 *868:Z *869:I 12.78 
*END

*D_NET *282 0.000936611
*CONN
*I *872:I I *D gf180mcu_fd_sc_mcu7t5v0__clkbuf_1
*I *871:Z O *D gf180mcu_fd_sc_mcu7t5v0__clkbuf_1
*CAP
1 *872:I 0.000379811
2 *871:Z 0.000379811
3 *872:I *857:EN 6.0199e-05
4 *860:I *872:I 1.17652e-05
5 *865:I *872:I 4.83522e-05
6 *871:I *872:I 5.66716e-05
*RES
1 *871:Z *872:I 11.7 
*END

*D_NET *283 0.00804903
*CONN
*I *856:EN I *D gf180mcu_fd_sc_mcu7t5v0__invz_8
*I *869:Z O *D gf180mcu_fd_sc_mcu7t5v0__clkbuf_1
*CAP
1 *856:EN 0.00112949
2 *869:Z 0.00112949
3 *647:I *856:EN 0.000147089
4 *650:I *856:EN 4.45729e-05
5 *651:A2 *856:EN 6.34901e-05
6 *665:I *856:EN 0.000131469
7 *667:I *856:EN 5.97457e-06
8 *677:I *856:EN 2.1573e-06
9 *678:A1 *856:EN 0.000117315
10 *684:I *856:EN 0.000346684
11 *854:I *856:EN 9.29745e-05
12 *858:I *856:EN 0.00033414
13 *868:I *856:EN 0.000853846
14 *869:I *856:EN 0
15 *99:10 *856:EN 0.00117149
16 *99:20 *856:EN 0.000276888
17 *271:26 *856:EN 0.00180941
18 *279:16 *856:EN 0.000392557
*RES
1 *869:Z *856:EN 36.54 
*END

*D_NET *284 0.0109612
*CONN
*I *857:EN I *D gf180mcu_fd_sc_mcu7t5v0__invz_4
*I *872:Z O *D gf180mcu_fd_sc_mcu7t5v0__clkbuf_1
*CAP
1 *857:EN 0.00119757
2 *872:Z 0.00119757
3 *308:I *857:EN 0.000129087
4 *652:RN *857:EN 0.000598952
5 *665:I *857:EN 5.60661e-06
6 *666:I *857:EN 0.000889456
7 *673:I *857:EN 0.000479178
8 *680:I *857:EN 0.000674413
9 *833:EN *857:EN 0.000161479
10 *834:EN *857:EN 3.07932e-05
11 *860:I *857:EN 0.00120671
12 *864:I *857:EN 0.000237134
13 *871:I *857:EN 0
14 *872:I *857:EN 6.0199e-05
15 *13:13 *857:EN 0.000223887
16 *24:15 *857:EN 0.00124164
17 *53:258 *857:EN 0.00246125
18 *81:10 *857:EN 0.000121815
19 *272:18 *857:EN 4.44491e-05
*RES
1 *872:Z *857:EN 39.15 
*END

*D_NET *285 0.00249642
*CONN
*I *863:E I *D gf180mcu_fd_sc_mcu7t5v0__latrnq_1
*I *859:E I *D gf180mcu_fd_sc_mcu7t5v0__latrnq_1
*I *873:Z O *D gf180mcu_fd_sc_mcu7t5v0__xor2_1
*CAP
1 *863:E 0
2 *859:E 0.000139933
3 *873:Z 9.11106e-05
4 *285:8 0.000231044
5 *859:E *873:A2 0.000162606
6 *285:8 *873:A2 7.71021e-06
7 *301:I *859:E 3.46784e-05
8 *301:I *285:8 0.000567809
9 *322:I *859:E 0.000836033
10 *843:A1 *859:E 0.000113947
11 *859:D *859:E 9.85004e-05
12 *863:D *285:8 0.000213046
*RES
1 *873:Z *285:8 6.3 
2 *285:8 *859:E 7.11 
3 *285:8 *863:E 4.5 
*END

*D_NET *286 0.00178152
*CONN
*I *873:A2 I *D gf180mcu_fd_sc_mcu7t5v0__xor2_1
*I *851:Z O *D gf180mcu_fd_sc_mcu7t5v0__clkbuf_2
*CAP
1 *873:A2 0.00010541
2 *851:Z 0.00010541
3 *322:I *873:A2 0.000622581
4 *843:A1 *873:A2 0.000237866
5 *859:E *873:A2 0.000162606
6 *859:RN *873:A2 3.51198e-05
7 *863:D *873:A2 0.00050482
8 *285:8 *873:A2 7.71021e-06
*RES
1 *851:Z *873:A2 11.61 
*END

*D_NET *287 0.0177118
*CONN
*I *857:I I *D gf180mcu_fd_sc_mcu7t5v0__invz_4
*I *853:I I *D gf180mcu_fd_sc_mcu7t5v0__clkbuf_1
*I *856:I I *D gf180mcu_fd_sc_mcu7t5v0__invz_8
*I *852:Z O *D gf180mcu_fd_sc_mcu7t5v0__clkbuf_2
*CAP
1 *857:I 4.73193e-05
2 *853:I 0.00112332
3 *856:I 0.000483575
4 *852:Z 0
5 *287:12 0.00184888
6 *287:4 0.000289299
7 *650:I *856:I 8.22087e-05
8 *652:D *856:I 7.88453e-05
9 *652:RN *856:I 0.000606654
10 *656:I *856:I 0
11 *660:I *856:I 0.000783563
12 *661:I *856:I 0.000291749
13 *671:RN *853:I 2.75886e-05
14 *685:A2 *853:I 4.93782e-06
15 *691:EN *853:I 5.97802e-05
16 *754:A1 *853:I 0.000314103
17 *833:EN *856:I 4.0961e-06
18 *839:A1 *853:I 0.000805798
19 *839:A1 *287:12 0.000270679
20 *845:I *857:I 0.000478005
21 *845:I *287:12 0.000262725
22 *855:I *287:12 0
23 *855:ZN *857:I 0.000428122
24 *855:ZN *287:12 0.000314018
25 *864:I *853:I 0.000755685
26 *865:I *853:I 0.000327108
27 *121:10 *853:I 0
28 *121:25 *853:I 0.00045688
29 *272:18 *853:I 0.00651421
30 *272:18 *287:12 0.00105263
*RES
1 *852:Z *287:4 4.5 
2 *287:4 *287:12 8.55 
3 *287:12 *856:I 13.77 
4 *287:12 *853:I 29.16 
5 *287:4 *857:I 5.85 
*END

*D_NET *288 0.000653607
*CONN
*I *880:EN I *D gf180mcu_fd_sc_mcu7t5v0__invz_8
*I *875:ZN O *D gf180mcu_fd_sc_mcu7t5v0__nor2_2
*CAP
1 *880:EN 0.000185256
2 *875:ZN 0.000185256
3 *880:EN *292:6 0.000100101
4 *30:29 *880:EN 1.07374e-05
5 *53:231 *880:EN 0.000172257
*RES
1 *875:ZN *880:EN 10.89 
*END

*D_NET *289 0.00107112
*CONN
*I *879:I I *D gf180mcu_fd_sc_mcu7t5v0__invz_2
*I *877:Z O *D gf180mcu_fd_sc_mcu7t5v0__clkbuf_1
*CAP
1 *879:I 0.000386434
2 *877:Z 0.000386434
3 *879:I *878:I 3.75875e-05
4 *879:I *879:ZN 7.26012e-05
5 *879:I *290:8 3.98088e-05
6 *795:I *879:I 5.97457e-06
7 *796:I *879:I 0
8 *880:I *879:I 1.73683e-05
9 *76:66 *879:I 9.85004e-05
10 *76:72 *879:I 2.64106e-05
*RES
1 *877:Z *879:I 11.79 
*END

*D_NET *290 0.00280497
*CONN
*I *882:I I *D gf180mcu_fd_sc_mcu7t5v0__clkinv_1
*I *879:ZN O *D gf180mcu_fd_sc_mcu7t5v0__invz_2
*I *881:ZN O *D gf180mcu_fd_sc_mcu7t5v0__invz_4
*CAP
1 *882:I 0.000359102
2 *879:ZN 0.000194651
3 *881:ZN 2.6684e-05
4 *290:8 0.000580438
5 *882:I *878:I 0.0012472
6 *290:8 *878:I 1.80607e-05
7 *745:I *882:I 1.27919e-05
8 *783:I *882:I 2.1573e-06
9 *816:A1 *879:ZN 5.35075e-05
10 *816:A1 *882:I 4.2195e-05
11 *879:I *879:ZN 7.26012e-05
12 *879:I *290:8 3.98088e-05
13 *880:I *879:ZN 3.99345e-05
14 *16:7 *879:ZN 4.18375e-05
15 *16:7 *882:I 6.35834e-05
16 *177:8 *882:I 1.0415e-05
*RES
1 *881:ZN *290:8 9.27 
2 *290:8 *879:ZN 10.44 
3 *290:8 *882:I 13.14 
*END

*D_NET *291 0.00320098
*CONN
*I *878:I I *D gf180mcu_fd_sc_mcu7t5v0__invz_2
*I *882:ZN O *D gf180mcu_fd_sc_mcu7t5v0__clkinv_1
*CAP
1 *878:I 0.00062143
2 *882:ZN 0.00062143
3 *314:I *878:I 6.01893e-05
4 *732:I *878:I 5.97457e-06
5 *744:E *878:I 0
6 *744:RN *878:I 0
7 *816:A1 *878:I 0.000570391
8 *879:I *878:I 3.75875e-05
9 *880:I *878:I 1.87105e-05
10 *882:I *878:I 0.0012472
11 *290:8 *878:I 1.80607e-05
*RES
1 *882:ZN *878:I 24.66 
*END

*D_NET *292 0.00159424
*CONN
*I *875:A2 I *D gf180mcu_fd_sc_mcu7t5v0__nor2_2
*I *878:EN I *D gf180mcu_fd_sc_mcu7t5v0__invz_2
*I *886:Q O *D gf180mcu_fd_sc_mcu7t5v0__latrnq_1
*CAP
1 *875:A2 0
2 *878:EN 7.06989e-05
3 *886:Q 0.000177022
4 *292:6 0.000247721
5 *875:A1 *292:6 0.000129618
6 *880:EN *292:6 0.000100101
7 *5:38 *292:6 0.000507492
8 *15:27 *878:EN 0.000310002
9 *16:7 *878:EN 0
10 *53:231 *292:6 5.15822e-05
*RES
1 *886:Q *292:6 6.75 
2 *292:6 *878:EN 14.31 
3 *292:6 *875:A2 4.5 
*END

*D_NET *293 0.00186491
*CONN
*I *888:I I *D gf180mcu_fd_sc_mcu7t5v0__inv_2
*I *879:EN I *D gf180mcu_fd_sc_mcu7t5v0__invz_2
*I *887:Q O *D gf180mcu_fd_sc_mcu7t5v0__latrnq_1
*CAP
1 *888:I 0.000187074
2 *879:EN 0.000225448
3 *887:Q 0
4 *293:4 0.000412522
5 *879:EN *881:EN 6.91924e-05
6 *888:I *881:EN 9.93368e-05
7 *816:A1 *879:EN 0.00016201
8 *821:I *888:I 1.0415e-05
9 *824:I *879:EN 1.47139e-05
10 *824:I *888:I 4.34708e-05
11 *16:7 *879:EN 6.19008e-05
12 *30:29 *879:EN 0.000129173
13 *30:29 *888:I 2.38983e-05
14 *53:231 *879:EN 0.000425752
*RES
1 *887:Q *293:4 4.5 
2 *293:4 *879:EN 16.29 
3 *293:4 *888:I 6.03 
*END

*D_NET *294 0.00259236
*CONN
*I *887:E I *D gf180mcu_fd_sc_mcu7t5v0__latrnq_1
*I *886:E I *D gf180mcu_fd_sc_mcu7t5v0__latrnq_1
*I *889:Z O *D gf180mcu_fd_sc_mcu7t5v0__xor2_1
*CAP
1 *887:E 0.000144198
2 *886:E 0.000386316
3 *889:Z 0
4 *294:4 0.000530515
5 *327:I *886:E 0.000156253
6 *618:I *886:E 0.000623009
7 *618:I *887:E 6.84043e-05
8 *804:I *886:E 0.000110619
9 *804:I *887:E 0.00031725
10 *804:ZN *886:E 0.000223407
11 *886:D *886:E 2.26729e-05
12 *889:A1 *886:E 9.71964e-06
13 *53:108 *886:E 0
*RES
1 *889:Z *294:4 4.5 
2 *294:4 *886:E 9.18 
3 *294:4 *887:E 6.12 
*END

*D_NET *295 0.000689494
*CONN
*I *874:A2 I *D gf180mcu_fd_sc_mcu7t5v0__and2_2
*I *883:Z O *D gf180mcu_fd_sc_mcu7t5v0__dlyb_1
*CAP
1 *874:A2 0.000234196
2 *883:Z 0.000234196
3 *874:A2 *874:A1 8.72877e-05
4 *837:I *874:A2 2.89427e-06
5 *838:I *874:A2 0
6 *14:17 *874:A2 0.00013092
*RES
1 *883:Z *874:A2 10.8 
*END

*D_NET *296 0.000291145
*CONN
*I *889:A2 I *D gf180mcu_fd_sc_mcu7t5v0__xor2_1
*I *876:Z O *D gf180mcu_fd_sc_mcu7t5v0__clkbuf_2
*CAP
1 *889:A2 7.37809e-05
2 *876:Z 7.37809e-05
3 *15:27 *889:A2 0
4 *16:7 *889:A2 0.000143583
*RES
1 *876:Z *889:A2 18.81 
*END

*D_NET *297 0.0035082
*CONN
*I *880:ZN O *D gf180mcu_fd_sc_mcu7t5v0__invz_8
*I *874:A1 I *D gf180mcu_fd_sc_mcu7t5v0__and2_2
*I *878:ZN O *D gf180mcu_fd_sc_mcu7t5v0__invz_2
*I *884:ZN O *D gf180mcu_fd_sc_mcu7t5v0__invz_1
*CAP
1 *880:ZN 0
2 *874:A1 0.000473548
3 *878:ZN 9.59445e-05
4 *884:ZN 2.98535e-05
5 *297:12 0.000910928
6 *297:6 0.000371288
7 *313:I *874:A1 5.74621e-06
8 *732:I *874:A1 1.30236e-05
9 *732:I *878:ZN 0
10 *754:A2 *297:6 0.000567799
11 *838:I *874:A1 0
12 *874:A2 *874:A1 8.72877e-05
13 *880:I *874:A1 2.38983e-05
14 *880:I *878:ZN 3.99345e-05
15 *884:EN *874:A1 2.40933e-06
16 *14:17 *874:A1 2.32821e-05
17 *15:27 *297:6 0.000567799
18 *15:27 *297:12 0.000127877
19 *185:14 *297:12 0.000101812
20 *185:24 *874:A1 6.57682e-05
21 *185:24 *297:12 0
*RES
1 *884:ZN *297:6 6.03 
2 *297:6 *297:12 11.25 
3 *297:12 *878:ZN 5.13 
4 *297:12 *874:A1 8.01 
5 *297:6 *880:ZN 4.5 
*END

*D_NET *298 0.00079597
*CONN
*I *881:EN I *D gf180mcu_fd_sc_mcu7t5v0__invz_4
*I *888:ZN O *D gf180mcu_fd_sc_mcu7t5v0__inv_2
*CAP
1 *881:EN 0.000132334
2 *888:ZN 0.000132334
3 *317:I *881:EN 0
4 *879:EN *881:EN 6.91924e-05
5 *888:I *881:EN 9.93368e-05
6 *30:29 *881:EN 0.000362773
*RES
1 *888:ZN *881:EN 10.62 
*END

*D_NET *299 0.00144499
*CONN
*I *884:I I *D gf180mcu_fd_sc_mcu7t5v0__invz_1
*I *885:Z O *D gf180mcu_fd_sc_mcu7t5v0__tieh
*CAP
1 *884:I 0.000325948
2 *885:Z 0.000325948
3 *326:I *884:I 5.0809e-05
4 *715:EN *884:I 1.17934e-05
5 *730:I *884:I 4.01144e-05
6 *744:E *884:I 7.90514e-05
7 *800:A1 *884:I 0.00052094
8 *5:17 *884:I 6.19119e-05
9 *184:8 *884:I 2.84698e-05
*RES
1 *885:Z *884:I 21.42 
*END
