*SPEF "ieee 1481-1999"
*DESIGN "ring_osc2x13"
*DATE "23:09:49 Sunday November 30, 2025"
*VENDOR "The OpenROAD Project"
*PROGRAM "OpenROAD"
*VERSION "4534556345c94ba27a6ad69fb05594da80f0728b"
*DESIGN_FLOW "NAME_SCOPE LOCAL" "PIN_CAP NONE"
*DIVIDER /
*DELIMITER :
*BUS_DELIMITER []
*T_UNIT 1 NS
*C_UNIT 1 PF
*R_UNIT 1 OHM
*L_UNIT 1 HENRY

*NAME_MAP
*3 clockp[0]
*4 clockp[1]
*5 reset
*6 trim[0]
*7 trim[10]
*8 trim[11]
*9 trim[12]
*10 trim[13]
*11 trim[14]
*12 trim[15]
*13 trim[16]
*14 trim[17]
*15 trim[18]
*16 trim[19]
*17 trim[1]
*18 trim[20]
*19 trim[21]
*20 trim[22]
*21 trim[23]
*22 trim[24]
*23 trim[25]
*24 trim[2]
*25 trim[3]
*26 trim[4]
*27 trim[5]
*28 trim[6]
*29 trim[7]
*30 trim[8]
*31 trim[9]
*32 c\[0\]
*33 c\[1\]
*34 dstage\[10\]\.id\.d0
*35 dstage\[10\]\.id\.d1
*36 dstage\[10\]\.id\.d2
*37 dstage\[10\]\.id\.in
*38 dstage\[10\]\.id\.lddtrim\[0\]
*39 dstage\[10\]\.id\.lddtrim\[1\]
*40 dstage\[10\]\.id\.ldotrim\[0\]
*41 dstage\[10\]\.id\.ldotrim\[1\]
*42 dstage\[10\]\.id\.ldtrim\[0\]
*43 dstage\[10\]\.id\.ldtrim\[1\]
*44 dstage\[10\]\.id\.ltrim\[0\]
*45 dstage\[10\]\.id\.ltrim\[1\]
*46 dstage\[10\]\.id\.ltrimb\[0\]
*47 dstage\[10\]\.id\.ltrimb\[1\]
*48 dstage\[10\]\.id\.ltrimbd\[0\]
*49 dstage\[10\]\.id\.ltrimbd\[1\]
*50 dstage\[10\]\.id\.ltrimbdd\[0\]
*51 dstage\[10\]\.id\.ltrimbdd\[1\]
*52 dstage\[10\]\.id\.not_edge
*53 dstage\[10\]\.id\.nreset
*54 dstage\[10\]\.id\.out
*55 dstage\[10\]\.id\.out_del
*56 dstage\[10\]\.id\.prev_in
*57 dstage\[10\]\.id\.ts
*58 dstage\[11\]\.id\.d0
*59 dstage\[11\]\.id\.d1
*60 dstage\[11\]\.id\.d2
*61 dstage\[11\]\.id\.lddtrim\[0\]
*62 dstage\[11\]\.id\.lddtrim\[1\]
*63 dstage\[11\]\.id\.ldotrim\[0\]
*64 dstage\[11\]\.id\.ldotrim\[1\]
*65 dstage\[11\]\.id\.ldtrim\[0\]
*66 dstage\[11\]\.id\.ldtrim\[1\]
*67 dstage\[11\]\.id\.ltrim\[0\]
*68 dstage\[11\]\.id\.ltrim\[1\]
*69 dstage\[11\]\.id\.ltrimb\[0\]
*70 dstage\[11\]\.id\.ltrimb\[1\]
*71 dstage\[11\]\.id\.ltrimbd\[0\]
*72 dstage\[11\]\.id\.ltrimbd\[1\]
*73 dstage\[11\]\.id\.ltrimbdd\[0\]
*74 dstage\[11\]\.id\.ltrimbdd\[1\]
*75 dstage\[11\]\.id\.not_edge
*76 dstage\[11\]\.id\.out
*77 dstage\[11\]\.id\.out_del
*78 dstage\[11\]\.id\.prev_in
*79 dstage\[11\]\.id\.ts
*80 dstage\[2\]\.id\.d0
*81 dstage\[2\]\.id\.d1
*82 dstage\[2\]\.id\.d2
*83 dstage\[2\]\.id\.in
*84 dstage\[2\]\.id\.lddtrim\[0\]
*85 dstage\[2\]\.id\.lddtrim\[1\]
*86 dstage\[2\]\.id\.ldotrim\[0\]
*87 dstage\[2\]\.id\.ldotrim\[1\]
*88 dstage\[2\]\.id\.ldtrim\[0\]
*89 dstage\[2\]\.id\.ldtrim\[1\]
*90 dstage\[2\]\.id\.ltrim\[0\]
*91 dstage\[2\]\.id\.ltrim\[1\]
*92 dstage\[2\]\.id\.ltrimb\[0\]
*93 dstage\[2\]\.id\.ltrimb\[1\]
*94 dstage\[2\]\.id\.ltrimbd\[0\]
*95 dstage\[2\]\.id\.ltrimbd\[1\]
*96 dstage\[2\]\.id\.ltrimbdd\[0\]
*97 dstage\[2\]\.id\.ltrimbdd\[1\]
*98 dstage\[2\]\.id\.not_edge
*99 dstage\[2\]\.id\.out
*100 dstage\[2\]\.id\.out_del
*101 dstage\[2\]\.id\.prev_in
*102 dstage\[2\]\.id\.ts
*103 dstage\[3\]\.id\.d0
*104 dstage\[3\]\.id\.d1
*105 dstage\[3\]\.id\.d2
*106 dstage\[3\]\.id\.lddtrim\[0\]
*107 dstage\[3\]\.id\.lddtrim\[1\]
*108 dstage\[3\]\.id\.ldotrim\[0\]
*109 dstage\[3\]\.id\.ldotrim\[1\]
*110 dstage\[3\]\.id\.ldtrim\[0\]
*111 dstage\[3\]\.id\.ldtrim\[1\]
*112 dstage\[3\]\.id\.ltrim\[0\]
*113 dstage\[3\]\.id\.ltrim\[1\]
*114 dstage\[3\]\.id\.ltrimb\[0\]
*115 dstage\[3\]\.id\.ltrimb\[1\]
*116 dstage\[3\]\.id\.ltrimbd\[0\]
*117 dstage\[3\]\.id\.ltrimbd\[1\]
*118 dstage\[3\]\.id\.ltrimbdd\[0\]
*119 dstage\[3\]\.id\.ltrimbdd\[1\]
*120 dstage\[3\]\.id\.not_edge
*121 dstage\[3\]\.id\.out
*122 dstage\[3\]\.id\.out_del
*123 dstage\[3\]\.id\.prev_in
*124 dstage\[3\]\.id\.ts
*125 dstage\[4\]\.id\.d0
*126 dstage\[4\]\.id\.d1
*127 dstage\[4\]\.id\.d2
*128 dstage\[4\]\.id\.lddtrim\[0\]
*129 dstage\[4\]\.id\.lddtrim\[1\]
*130 dstage\[4\]\.id\.ldotrim\[0\]
*131 dstage\[4\]\.id\.ldotrim\[1\]
*132 dstage\[4\]\.id\.ldtrim\[0\]
*133 dstage\[4\]\.id\.ldtrim\[1\]
*134 dstage\[4\]\.id\.ltrim\[0\]
*135 dstage\[4\]\.id\.ltrim\[1\]
*136 dstage\[4\]\.id\.ltrimb\[0\]
*137 dstage\[4\]\.id\.ltrimb\[1\]
*138 dstage\[4\]\.id\.ltrimbd\[0\]
*139 dstage\[4\]\.id\.ltrimbd\[1\]
*140 dstage\[4\]\.id\.ltrimbdd\[0\]
*141 dstage\[4\]\.id\.ltrimbdd\[1\]
*142 dstage\[4\]\.id\.not_edge
*143 dstage\[4\]\.id\.out
*144 dstage\[4\]\.id\.out_del
*145 dstage\[4\]\.id\.ts
*146 dstage\[5\]\.id\.d0
*147 dstage\[5\]\.id\.d1
*148 dstage\[5\]\.id\.d2
*149 dstage\[5\]\.id\.lddtrim\[0\]
*150 dstage\[5\]\.id\.lddtrim\[1\]
*151 dstage\[5\]\.id\.ldotrim\[0\]
*152 dstage\[5\]\.id\.ldotrim\[1\]
*153 dstage\[5\]\.id\.ldtrim\[0\]
*154 dstage\[5\]\.id\.ldtrim\[1\]
*155 dstage\[5\]\.id\.ltrim\[0\]
*156 dstage\[5\]\.id\.ltrim\[1\]
*157 dstage\[5\]\.id\.ltrimb\[0\]
*158 dstage\[5\]\.id\.ltrimb\[1\]
*159 dstage\[5\]\.id\.ltrimbd\[0\]
*160 dstage\[5\]\.id\.ltrimbd\[1\]
*161 dstage\[5\]\.id\.ltrimbdd\[0\]
*162 dstage\[5\]\.id\.ltrimbdd\[1\]
*163 dstage\[5\]\.id\.not_edge
*164 dstage\[5\]\.id\.out
*165 dstage\[5\]\.id\.out_del
*166 dstage\[5\]\.id\.ts
*167 dstage\[6\]\.id\.d0
*168 dstage\[6\]\.id\.d1
*169 dstage\[6\]\.id\.d2
*170 dstage\[6\]\.id\.lddtrim\[0\]
*171 dstage\[6\]\.id\.lddtrim\[1\]
*172 dstage\[6\]\.id\.ldotrim\[0\]
*173 dstage\[6\]\.id\.ldotrim\[1\]
*174 dstage\[6\]\.id\.ldtrim\[0\]
*175 dstage\[6\]\.id\.ldtrim\[1\]
*176 dstage\[6\]\.id\.ltrim\[0\]
*177 dstage\[6\]\.id\.ltrim\[1\]
*178 dstage\[6\]\.id\.ltrimb\[0\]
*179 dstage\[6\]\.id\.ltrimb\[1\]
*180 dstage\[6\]\.id\.ltrimbd\[0\]
*181 dstage\[6\]\.id\.ltrimbd\[1\]
*182 dstage\[6\]\.id\.ltrimbdd\[0\]
*183 dstage\[6\]\.id\.ltrimbdd\[1\]
*184 dstage\[6\]\.id\.not_edge
*185 dstage\[6\]\.id\.out
*186 dstage\[6\]\.id\.out_del
*187 dstage\[6\]\.id\.ts
*188 dstage\[7\]\.id\.d0
*189 dstage\[7\]\.id\.d1
*190 dstage\[7\]\.id\.d2
*191 dstage\[7\]\.id\.lddtrim\[0\]
*192 dstage\[7\]\.id\.lddtrim\[1\]
*193 dstage\[7\]\.id\.ldotrim\[0\]
*194 dstage\[7\]\.id\.ldotrim\[1\]
*195 dstage\[7\]\.id\.ldtrim\[0\]
*196 dstage\[7\]\.id\.ldtrim\[1\]
*197 dstage\[7\]\.id\.ltrim\[0\]
*198 dstage\[7\]\.id\.ltrim\[1\]
*199 dstage\[7\]\.id\.ltrimb\[0\]
*200 dstage\[7\]\.id\.ltrimb\[1\]
*201 dstage\[7\]\.id\.ltrimbd\[0\]
*202 dstage\[7\]\.id\.ltrimbd\[1\]
*203 dstage\[7\]\.id\.ltrimbdd\[0\]
*204 dstage\[7\]\.id\.ltrimbdd\[1\]
*205 dstage\[7\]\.id\.not_edge
*206 dstage\[7\]\.id\.out_del
*207 dstage\[7\]\.id\.ts
*208 dstage\[8\]\.id\.d0
*209 dstage\[8\]\.id\.d1
*210 dstage\[8\]\.id\.d2
*211 dstage\[8\]\.id\.lddtrim\[0\]
*212 dstage\[8\]\.id\.lddtrim\[1\]
*213 dstage\[8\]\.id\.ldotrim\[0\]
*214 dstage\[8\]\.id\.ldotrim\[1\]
*215 dstage\[8\]\.id\.ldtrim\[0\]
*216 dstage\[8\]\.id\.ldtrim\[1\]
*217 dstage\[8\]\.id\.ltrim\[0\]
*218 dstage\[8\]\.id\.ltrim\[1\]
*219 dstage\[8\]\.id\.ltrimb\[0\]
*220 dstage\[8\]\.id\.ltrimb\[1\]
*221 dstage\[8\]\.id\.ltrimbd\[0\]
*222 dstage\[8\]\.id\.ltrimbd\[1\]
*223 dstage\[8\]\.id\.ltrimbdd\[0\]
*224 dstage\[8\]\.id\.ltrimbdd\[1\]
*225 dstage\[8\]\.id\.not_edge
*226 dstage\[8\]\.id\.out_del
*227 dstage\[8\]\.id\.ts
*228 dstage\[9\]\.id\.d0
*229 dstage\[9\]\.id\.d1
*230 dstage\[9\]\.id\.d2
*231 dstage\[9\]\.id\.lddtrim\[0\]
*232 dstage\[9\]\.id\.lddtrim\[1\]
*233 dstage\[9\]\.id\.ldotrim\[0\]
*234 dstage\[9\]\.id\.ldotrim\[1\]
*235 dstage\[9\]\.id\.ldtrim\[0\]
*236 dstage\[9\]\.id\.ldtrim\[1\]
*237 dstage\[9\]\.id\.ltrim\[0\]
*238 dstage\[9\]\.id\.ltrim\[1\]
*239 dstage\[9\]\.id\.ltrimb\[0\]
*240 dstage\[9\]\.id\.ltrimb\[1\]
*241 dstage\[9\]\.id\.ltrimbd\[0\]
*242 dstage\[9\]\.id\.ltrimbd\[1\]
*243 dstage\[9\]\.id\.ltrimbdd\[0\]
*244 dstage\[9\]\.id\.ltrimbdd\[1\]
*245 dstage\[9\]\.id\.not_edge
*246 dstage\[9\]\.id\.out_del
*247 dstage\[9\]\.id\.ts
*248 id0\.d0
*249 id0\.d1
*250 id0\.d2
*251 id0\.lddtrim\[0\]
*252 id0\.lddtrim\[1\]
*253 id0\.ldotrim\[0\]
*254 id0\.ldotrim\[1\]
*255 id0\.ldtrim\[0\]
*256 id0\.ldtrim\[1\]
*257 id0\.ltrim\[0\]
*258 id0\.ltrim\[1\]
*259 id0\.ltrimb\[0\]
*260 id0\.ltrimb\[1\]
*261 id0\.ltrimbd\[0\]
*262 id0\.ltrimbd\[1\]
*263 id0\.ltrimbdd\[0\]
*264 id0\.ltrimbdd\[1\]
*265 id0\.not_edge
*266 id0\.out_del
*267 id0\.ts
*268 id1\.d0
*269 id1\.d1
*270 id1\.d2
*271 id1\.lddtrim\[0\]
*272 id1\.lddtrim\[1\]
*273 id1\.ldotrim\[0\]
*274 id1\.ldotrim\[1\]
*275 id1\.ldtrim\[0\]
*276 id1\.ldtrim\[1\]
*277 id1\.ltrim\[0\]
*278 id1\.ltrim\[1\]
*279 id1\.ltrimb\[0\]
*280 id1\.ltrimb\[1\]
*281 id1\.ltrimbd\[0\]
*282 id1\.ltrimbd\[1\]
*283 id1\.ltrimbdd\[0\]
*284 id1\.ltrimbdd\[1\]
*285 id1\.not_edge
*286 id1\.out_del
*287 id1\.ts
*288 iss\.ctrl0b
*289 iss\.d0
*290 iss\.d1
*291 iss\.d2
*292 iss\.ltrim\[0\]
*293 iss\.ltrim\[1\]
*294 iss\.not_edge
*295 iss\.nreset_del
*296 iss\.out_del
*297 iss\.out_precg
*298 iss\.trim1b
*299 net
*300 ANTENNA__0__I
*301 ANTENNA_dstage\[10\]\.id\.t0_latch_D
*302 ANTENNA_dstage\[10\]\.id\.t1_latch_D
*303 ANTENNA_dstage\[11\]\.id\.t0_latch_D
*304 ANTENNA_dstage\[11\]\.id\.t1_latch_D
*305 ANTENNA_dstage\[2\]\.id\.t0_latch_D
*306 ANTENNA_dstage\[2\]\.id\.t1_latch_D
*307 ANTENNA_dstage\[3\]\.id\.t0_latch_D
*308 ANTENNA_dstage\[3\]\.id\.t1_latch_D
*309 ANTENNA_dstage\[4\]\.id\.t0_latch_D
*310 ANTENNA_dstage\[4\]\.id\.t1_latch_D
*311 ANTENNA_dstage\[5\]\.id\.t0_latch_D
*312 ANTENNA_dstage\[5\]\.id\.t1_latch_D
*313 ANTENNA_dstage\[6\]\.id\.t0_latch_D
*314 ANTENNA_dstage\[6\]\.id\.t1_latch_D
*315 ANTENNA_dstage\[7\]\.id\.t0_latch_D
*316 ANTENNA_dstage\[7\]\.id\.t1_latch_D
*317 ANTENNA_dstage\[8\]\.id\.t0_latch_D
*318 ANTENNA_dstage\[8\]\.id\.t1_latch_D
*319 ANTENNA_dstage\[9\]\.id\.t0_latch_D
*320 ANTENNA_dstage\[9\]\.id\.t1_latch_D
*321 ANTENNA_id0\.t0_latch_D
*322 ANTENNA_id0\.t1_latch_D
*323 ANTENNA_id1\.t0_latch_D
*324 ANTENNA_id1\.t1_latch_D
*325 ANTENNA_iss\.ctrlen0_A1
*326 ANTENNA_iss\.reseten0_EN
*327 ANTENNA_iss\.t0_latch_D
*328 ANTENNA_iss\.t1_latch_D
*329 FILLER_0_104
*330 FILLER_0_131
*331 FILLER_0_135
*332 FILLER_0_162
*333 FILLER_0_166
*334 FILLER_0_168
*335 FILLER_0_4
*336 FILLER_0_95
*337 FILLER_10_168
*338 FILLER_10_34
*339 FILLER_10_63
*340 FILLER_10_79
*341 FILLER_11_118
*342 FILLER_11_154
*343 FILLER_11_162
*344 FILLER_11_166
*345 FILLER_11_168
*346 FILLER_11_4
*347 FILLER_11_62
*348 FILLER_11_95
*349 FILLER_12_131
*350 FILLER_12_156
*351 FILLER_12_164
*352 FILLER_12_168
*353 FILLER_12_28
*354 FILLER_12_37
*355 FILLER_12_56
*356 FILLER_12_88
*357 FILLER_13_139
*358 FILLER_13_159
*359 FILLER_13_167
*360 FILLER_13_4
*361 FILLER_13_45
*362 FILLER_13_67
*363 FILLER_14_119
*364 FILLER_14_160
*365 FILLER_14_168
*366 FILLER_14_45
*367 FILLER_15_148
*368 FILLER_15_164
*369 FILLER_15_168
*370 FILLER_15_6
*371 FILLER_16_107
*372 FILLER_16_109
*373 FILLER_16_122
*374 FILLER_16_153
*375 FILLER_16_34
*376 FILLER_17_112
*377 FILLER_17_114
*378 FILLER_17_137
*379 FILLER_17_139
*380 FILLER_17_154
*381 FILLER_17_162
*382 FILLER_17_166
*383 FILLER_17_168
*384 FILLER_17_2
*385 FILLER_17_42
*386 FILLER_17_46
*387 FILLER_17_67
*388 FILLER_17_69
*389 FILLER_17_89
*390 FILLER_18_102
*391 FILLER_18_104
*392 FILLER_18_117
*393 FILLER_18_124
*394 FILLER_18_152
*395 FILLER_18_168
*396 FILLER_18_2
*397 FILLER_18_43
*398 FILLER_18_95
*399 FILLER_19_137
*400 FILLER_19_139
*401 FILLER_19_148
*402 FILLER_19_164
*403 FILLER_19_168
*404 FILLER_19_47
*405 FILLER_19_49
*406 FILLER_19_72
*407 FILLER_19_91
*408 FILLER_1_166
*409 FILLER_1_168
*410 FILLER_1_63
*411 FILLER_20_107
*412 FILLER_20_137
*413 FILLER_20_37
*414 FILLER_20_4
*415 FILLER_20_93
*416 FILLER_21_142
*417 FILLER_21_158
*418 FILLER_21_166
*419 FILLER_21_168
*420 FILLER_21_26
*421 FILLER_22_102
*422 FILLER_22_104
*423 FILLER_22_119
*424 FILLER_22_121
*425 FILLER_22_152
*426 FILLER_22_168
*427 FILLER_22_24
*428 FILLER_22_47
*429 FILLER_22_87
*430 FILLER_23_127
*431 FILLER_23_134
*432 FILLER_23_144
*433 FILLER_23_160
*434 FILLER_23_168
*435 FILLER_23_36
*436 FILLER_23_67
*437 FILLER_23_70
*438 FILLER_23_72
*439 FILLER_23_81
*440 FILLER_23_95
*441 FILLER_2_103
*442 FILLER_2_113
*443 FILLER_2_164
*444 FILLER_2_168
*445 FILLER_2_28
*446 FILLER_3_122
*447 FILLER_3_166
*448 FILLER_3_168
*449 FILLER_3_4
*450 FILLER_3_69
*451 FILLER_3_72
*452 FILLER_4_115
*453 FILLER_4_117
*454 FILLER_4_157
*455 FILLER_4_165
*456 FILLER_4_24
*457 FILLER_5_109
*458 FILLER_5_111
*459 FILLER_5_154
*460 FILLER_5_162
*461 FILLER_5_166
*462 FILLER_5_168
*463 FILLER_5_2
*464 FILLER_5_69
*465 FILLER_5_84
*466 FILLER_6_107
*467 FILLER_6_124
*468 FILLER_6_164
*469 FILLER_6_168
*470 FILLER_6_24
*471 FILLER_6_98
*472 FILLER_7_115
*473 FILLER_7_154
*474 FILLER_7_162
*475 FILLER_7_166
*476 FILLER_7_168
*477 FILLER_7_68
*478 FILLER_7_98
*479 FILLER_8_107
*480 FILLER_8_125
*481 FILLER_8_156
*482 FILLER_8_164
*483 FILLER_8_168
*484 FILLER_8_24
*485 FILLER_8_62
*486 FILLER_8_80
*487 FILLER_9_111
*488 FILLER_9_122
*489 FILLER_9_150
*490 FILLER_9_166
*491 FILLER_9_168
*492 FILLER_9_69
*493 PHY_EDGE_ROW_0_Left_24
*494 PHY_EDGE_ROW_0_Right_0
*495 PHY_EDGE_ROW_10_Left_34
*496 PHY_EDGE_ROW_10_Right_10
*497 PHY_EDGE_ROW_11_Left_35
*498 PHY_EDGE_ROW_11_Right_11
*499 PHY_EDGE_ROW_12_Left_36
*500 PHY_EDGE_ROW_12_Right_12
*501 PHY_EDGE_ROW_13_Left_37
*502 PHY_EDGE_ROW_13_Right_13
*503 PHY_EDGE_ROW_14_Left_38
*504 PHY_EDGE_ROW_14_Right_14
*505 PHY_EDGE_ROW_15_Left_39
*506 PHY_EDGE_ROW_15_Right_15
*507 PHY_EDGE_ROW_16_Left_40
*508 PHY_EDGE_ROW_16_Right_16
*509 PHY_EDGE_ROW_17_Left_41
*510 PHY_EDGE_ROW_17_Right_17
*511 PHY_EDGE_ROW_18_Left_42
*512 PHY_EDGE_ROW_18_Right_18
*513 PHY_EDGE_ROW_19_Left_43
*514 PHY_EDGE_ROW_19_Right_19
*515 PHY_EDGE_ROW_1_Left_25
*516 PHY_EDGE_ROW_1_Right_1
*517 PHY_EDGE_ROW_20_Left_44
*518 PHY_EDGE_ROW_20_Right_20
*519 PHY_EDGE_ROW_21_Left_45
*520 PHY_EDGE_ROW_21_Right_21
*521 PHY_EDGE_ROW_22_Left_46
*522 PHY_EDGE_ROW_22_Right_22
*523 PHY_EDGE_ROW_23_Left_47
*524 PHY_EDGE_ROW_23_Right_23
*525 PHY_EDGE_ROW_2_Left_26
*526 PHY_EDGE_ROW_2_Right_2
*527 PHY_EDGE_ROW_3_Left_27
*528 PHY_EDGE_ROW_3_Right_3
*529 PHY_EDGE_ROW_4_Left_28
*530 PHY_EDGE_ROW_4_Right_4
*531 PHY_EDGE_ROW_5_Left_29
*532 PHY_EDGE_ROW_5_Right_5
*533 PHY_EDGE_ROW_6_Left_30
*534 PHY_EDGE_ROW_6_Right_6
*535 PHY_EDGE_ROW_7_Left_31
*536 PHY_EDGE_ROW_7_Right_7
*537 PHY_EDGE_ROW_8_Left_32
*538 PHY_EDGE_ROW_8_Right_8
*539 PHY_EDGE_ROW_9_Left_33
*540 PHY_EDGE_ROW_9_Right_9
*541 TAP_TAPCELL_ROW_0_48
*542 TAP_TAPCELL_ROW_0_49
*543 TAP_TAPCELL_ROW_0_50
*544 TAP_TAPCELL_ROW_0_51
*545 TAP_TAPCELL_ROW_10_70
*546 TAP_TAPCELL_ROW_10_71
*547 TAP_TAPCELL_ROW_11_72
*548 TAP_TAPCELL_ROW_11_73
*549 TAP_TAPCELL_ROW_12_74
*550 TAP_TAPCELL_ROW_12_75
*551 TAP_TAPCELL_ROW_13_76
*552 TAP_TAPCELL_ROW_13_77
*553 TAP_TAPCELL_ROW_14_78
*554 TAP_TAPCELL_ROW_14_79
*555 TAP_TAPCELL_ROW_15_80
*556 TAP_TAPCELL_ROW_15_81
*557 TAP_TAPCELL_ROW_16_82
*558 TAP_TAPCELL_ROW_16_83
*559 TAP_TAPCELL_ROW_17_84
*560 TAP_TAPCELL_ROW_17_85
*561 TAP_TAPCELL_ROW_18_86
*562 TAP_TAPCELL_ROW_18_87
*563 TAP_TAPCELL_ROW_19_88
*564 TAP_TAPCELL_ROW_19_89
*565 TAP_TAPCELL_ROW_1_52
*566 TAP_TAPCELL_ROW_1_53
*567 TAP_TAPCELL_ROW_20_90
*568 TAP_TAPCELL_ROW_20_91
*569 TAP_TAPCELL_ROW_21_92
*570 TAP_TAPCELL_ROW_21_93
*571 TAP_TAPCELL_ROW_22_94
*572 TAP_TAPCELL_ROW_22_95
*573 TAP_TAPCELL_ROW_23_96
*574 TAP_TAPCELL_ROW_23_97
*575 TAP_TAPCELL_ROW_23_98
*576 TAP_TAPCELL_ROW_23_99
*577 TAP_TAPCELL_ROW_2_54
*578 TAP_TAPCELL_ROW_2_55
*579 TAP_TAPCELL_ROW_3_56
*580 TAP_TAPCELL_ROW_3_57
*581 TAP_TAPCELL_ROW_4_58
*582 TAP_TAPCELL_ROW_4_59
*583 TAP_TAPCELL_ROW_5_60
*584 TAP_TAPCELL_ROW_5_61
*585 TAP_TAPCELL_ROW_6_62
*586 TAP_TAPCELL_ROW_6_63
*587 TAP_TAPCELL_ROW_7_64
*588 TAP_TAPCELL_ROW_7_65
*589 TAP_TAPCELL_ROW_8_66
*590 TAP_TAPCELL_ROW_8_67
*591 TAP_TAPCELL_ROW_9_68
*592 TAP_TAPCELL_ROW_9_69
*593 _0_
*594 dstage\[10\]\.id\.deglitch_buf
*595 dstage\[10\]\.id\.delaybuf0
*596 dstage\[10\]\.id\.delaybuf1
*597 dstage\[10\]\.id\.delayen0
*598 dstage\[10\]\.id\.delayen1
*599 dstage\[10\]\.id\.delayenb0
*600 dstage\[10\]\.id\.delayenb1
*601 dstage\[10\]\.id\.delayint0
*602 dstage\[10\]\.id\.t0_latch
*603 dstage\[10\]\.id\.t0l_delay
*604 dstage\[10\]\.id\.t0l_delay2
*605 dstage\[10\]\.id\.t0ld_or
*606 dstage\[10\]\.id\.t1_latch
*607 dstage\[10\]\.id\.t1l_delay
*608 dstage\[10\]\.id\.t1l_delay2
*609 dstage\[10\]\.id\.t1ld_or
*610 dstage\[10\]\.id\.trim0bar
*611 dstage\[10\]\.id\.trim0bar_del0
*612 dstage\[10\]\.id\.trim0bar_del1
*613 dstage\[10\]\.id\.trim1bar
*614 dstage\[10\]\.id\.trim1bar_del0
*615 dstage\[10\]\.id\.trim1bar_del1
*616 dstage\[10\]\.id\.trim_inhibit
*617 dstage\[11\]\.id\.deglitch_buf
*618 dstage\[11\]\.id\.delaybuf0
*619 dstage\[11\]\.id\.delaybuf1
*620 dstage\[11\]\.id\.delayen0
*621 dstage\[11\]\.id\.delayen1
*622 dstage\[11\]\.id\.delayenb0
*623 dstage\[11\]\.id\.delayenb1
*624 dstage\[11\]\.id\.delayint0
*625 dstage\[11\]\.id\.t0_latch
*626 dstage\[11\]\.id\.t0l_delay
*627 dstage\[11\]\.id\.t0l_delay2
*628 dstage\[11\]\.id\.t0ld_or
*629 dstage\[11\]\.id\.t1_latch
*630 dstage\[11\]\.id\.t1l_delay
*631 dstage\[11\]\.id\.t1l_delay2
*632 dstage\[11\]\.id\.t1ld_or
*633 dstage\[11\]\.id\.trim0bar
*634 dstage\[11\]\.id\.trim0bar_del0
*635 dstage\[11\]\.id\.trim0bar_del1
*636 dstage\[11\]\.id\.trim1bar
*637 dstage\[11\]\.id\.trim1bar_del0
*638 dstage\[11\]\.id\.trim1bar_del1
*639 dstage\[11\]\.id\.trim_inhibit
*640 dstage\[2\]\.id\.deglitch_buf
*641 dstage\[2\]\.id\.delaybuf0
*642 dstage\[2\]\.id\.delaybuf1
*643 dstage\[2\]\.id\.delayen0
*644 dstage\[2\]\.id\.delayen1
*645 dstage\[2\]\.id\.delayenb0
*646 dstage\[2\]\.id\.delayenb1
*647 dstage\[2\]\.id\.delayint0
*648 dstage\[2\]\.id\.t0_latch
*649 dstage\[2\]\.id\.t0l_delay
*650 dstage\[2\]\.id\.t0l_delay2
*651 dstage\[2\]\.id\.t0ld_or
*652 dstage\[2\]\.id\.t1_latch
*653 dstage\[2\]\.id\.t1l_delay
*654 dstage\[2\]\.id\.t1l_delay2
*655 dstage\[2\]\.id\.t1ld_or
*656 dstage\[2\]\.id\.trim0bar
*657 dstage\[2\]\.id\.trim0bar_del0
*658 dstage\[2\]\.id\.trim0bar_del1
*659 dstage\[2\]\.id\.trim1bar
*660 dstage\[2\]\.id\.trim1bar_del0
*661 dstage\[2\]\.id\.trim1bar_del1
*662 dstage\[2\]\.id\.trim_inhibit
*663 dstage\[3\]\.id\.deglitch_buf
*664 dstage\[3\]\.id\.delaybuf0
*665 dstage\[3\]\.id\.delaybuf1
*666 dstage\[3\]\.id\.delayen0
*667 dstage\[3\]\.id\.delayen1
*668 dstage\[3\]\.id\.delayenb0
*669 dstage\[3\]\.id\.delayenb1
*670 dstage\[3\]\.id\.delayint0
*671 dstage\[3\]\.id\.t0_latch
*672 dstage\[3\]\.id\.t0l_delay
*673 dstage\[3\]\.id\.t0l_delay2
*674 dstage\[3\]\.id\.t0ld_or
*675 dstage\[3\]\.id\.t1_latch
*676 dstage\[3\]\.id\.t1l_delay
*677 dstage\[3\]\.id\.t1l_delay2
*678 dstage\[3\]\.id\.t1ld_or
*679 dstage\[3\]\.id\.trim0bar
*680 dstage\[3\]\.id\.trim0bar_del0
*681 dstage\[3\]\.id\.trim0bar_del1
*682 dstage\[3\]\.id\.trim1bar
*683 dstage\[3\]\.id\.trim1bar_del0
*684 dstage\[3\]\.id\.trim1bar_del1
*685 dstage\[3\]\.id\.trim_inhibit
*686 dstage\[4\]\.id\.deglitch_buf
*687 dstage\[4\]\.id\.delaybuf0
*688 dstage\[4\]\.id\.delaybuf1
*689 dstage\[4\]\.id\.delayen0
*690 dstage\[4\]\.id\.delayen1
*691 dstage\[4\]\.id\.delayenb0
*692 dstage\[4\]\.id\.delayenb1
*693 dstage\[4\]\.id\.delayint0
*694 dstage\[4\]\.id\.t0_latch
*695 dstage\[4\]\.id\.t0l_delay
*696 dstage\[4\]\.id\.t0l_delay2
*697 dstage\[4\]\.id\.t0ld_or
*698 dstage\[4\]\.id\.t1_latch
*699 dstage\[4\]\.id\.t1l_delay
*700 dstage\[4\]\.id\.t1l_delay2
*701 dstage\[4\]\.id\.t1ld_or
*702 dstage\[4\]\.id\.trim0bar
*703 dstage\[4\]\.id\.trim0bar_del0
*704 dstage\[4\]\.id\.trim0bar_del1
*705 dstage\[4\]\.id\.trim1bar
*706 dstage\[4\]\.id\.trim1bar_del0
*707 dstage\[4\]\.id\.trim1bar_del1
*708 dstage\[4\]\.id\.trim_inhibit
*709 dstage\[5\]\.id\.deglitch_buf
*710 dstage\[5\]\.id\.delaybuf0
*711 dstage\[5\]\.id\.delaybuf1
*712 dstage\[5\]\.id\.delayen0
*713 dstage\[5\]\.id\.delayen1
*714 dstage\[5\]\.id\.delayenb0
*715 dstage\[5\]\.id\.delayenb1
*716 dstage\[5\]\.id\.delayint0
*717 dstage\[5\]\.id\.t0_latch
*718 dstage\[5\]\.id\.t0l_delay
*719 dstage\[5\]\.id\.t0l_delay2
*720 dstage\[5\]\.id\.t0ld_or
*721 dstage\[5\]\.id\.t1_latch
*722 dstage\[5\]\.id\.t1l_delay
*723 dstage\[5\]\.id\.t1l_delay2
*724 dstage\[5\]\.id\.t1ld_or
*725 dstage\[5\]\.id\.trim0bar
*726 dstage\[5\]\.id\.trim0bar_del0
*727 dstage\[5\]\.id\.trim0bar_del1
*728 dstage\[5\]\.id\.trim1bar
*729 dstage\[5\]\.id\.trim1bar_del0
*730 dstage\[5\]\.id\.trim1bar_del1
*731 dstage\[5\]\.id\.trim_inhibit
*732 dstage\[6\]\.id\.deglitch_buf
*733 dstage\[6\]\.id\.delaybuf0
*734 dstage\[6\]\.id\.delaybuf1
*735 dstage\[6\]\.id\.delayen0
*736 dstage\[6\]\.id\.delayen1
*737 dstage\[6\]\.id\.delayenb0
*738 dstage\[6\]\.id\.delayenb1
*739 dstage\[6\]\.id\.delayint0
*740 dstage\[6\]\.id\.t0_latch
*741 dstage\[6\]\.id\.t0l_delay
*742 dstage\[6\]\.id\.t0l_delay2
*743 dstage\[6\]\.id\.t0ld_or
*744 dstage\[6\]\.id\.t1_latch
*745 dstage\[6\]\.id\.t1l_delay
*746 dstage\[6\]\.id\.t1l_delay2
*747 dstage\[6\]\.id\.t1ld_or
*748 dstage\[6\]\.id\.trim0bar
*749 dstage\[6\]\.id\.trim0bar_del0
*750 dstage\[6\]\.id\.trim0bar_del1
*751 dstage\[6\]\.id\.trim1bar
*752 dstage\[6\]\.id\.trim1bar_del0
*753 dstage\[6\]\.id\.trim1bar_del1
*754 dstage\[6\]\.id\.trim_inhibit
*755 dstage\[7\]\.id\.deglitch_buf
*756 dstage\[7\]\.id\.delaybuf0
*757 dstage\[7\]\.id\.delaybuf1
*758 dstage\[7\]\.id\.delayen0
*759 dstage\[7\]\.id\.delayen1
*760 dstage\[7\]\.id\.delayenb0
*761 dstage\[7\]\.id\.delayenb1
*762 dstage\[7\]\.id\.delayint0
*763 dstage\[7\]\.id\.t0_latch
*764 dstage\[7\]\.id\.t0l_delay
*765 dstage\[7\]\.id\.t0l_delay2
*766 dstage\[7\]\.id\.t0ld_or
*767 dstage\[7\]\.id\.t1_latch
*768 dstage\[7\]\.id\.t1l_delay
*769 dstage\[7\]\.id\.t1l_delay2
*770 dstage\[7\]\.id\.t1ld_or
*771 dstage\[7\]\.id\.trim0bar
*772 dstage\[7\]\.id\.trim0bar_del0
*773 dstage\[7\]\.id\.trim0bar_del1
*774 dstage\[7\]\.id\.trim1bar
*775 dstage\[7\]\.id\.trim1bar_del0
*776 dstage\[7\]\.id\.trim1bar_del1
*777 dstage\[7\]\.id\.trim_inhibit
*778 dstage\[8\]\.id\.deglitch_buf
*779 dstage\[8\]\.id\.delaybuf0
*780 dstage\[8\]\.id\.delaybuf1
*781 dstage\[8\]\.id\.delayen0
*782 dstage\[8\]\.id\.delayen1
*783 dstage\[8\]\.id\.delayenb0
*784 dstage\[8\]\.id\.delayenb1
*785 dstage\[8\]\.id\.delayint0
*786 dstage\[8\]\.id\.t0_latch
*787 dstage\[8\]\.id\.t0l_delay
*788 dstage\[8\]\.id\.t0l_delay2
*789 dstage\[8\]\.id\.t0ld_or
*790 dstage\[8\]\.id\.t1_latch
*791 dstage\[8\]\.id\.t1l_delay
*792 dstage\[8\]\.id\.t1l_delay2
*793 dstage\[8\]\.id\.t1ld_or
*794 dstage\[8\]\.id\.trim0bar
*795 dstage\[8\]\.id\.trim0bar_del0
*796 dstage\[8\]\.id\.trim0bar_del1
*797 dstage\[8\]\.id\.trim1bar
*798 dstage\[8\]\.id\.trim1bar_del0
*799 dstage\[8\]\.id\.trim1bar_del1
*800 dstage\[8\]\.id\.trim_inhibit
*801 dstage\[9\]\.id\.deglitch_buf
*802 dstage\[9\]\.id\.delaybuf0
*803 dstage\[9\]\.id\.delaybuf1
*804 dstage\[9\]\.id\.delayen0
*805 dstage\[9\]\.id\.delayen1
*806 dstage\[9\]\.id\.delayenb0
*807 dstage\[9\]\.id\.delayenb1
*808 dstage\[9\]\.id\.delayint0
*809 dstage\[9\]\.id\.t0_latch
*810 dstage\[9\]\.id\.t0l_delay
*811 dstage\[9\]\.id\.t0l_delay2
*812 dstage\[9\]\.id\.t0ld_or
*813 dstage\[9\]\.id\.t1_latch
*814 dstage\[9\]\.id\.t1l_delay
*815 dstage\[9\]\.id\.t1l_delay2
*816 dstage\[9\]\.id\.t1ld_or
*817 dstage\[9\]\.id\.trim0bar
*818 dstage\[9\]\.id\.trim0bar_del0
*819 dstage\[9\]\.id\.trim0bar_del1
*820 dstage\[9\]\.id\.trim1bar
*821 dstage\[9\]\.id\.trim1bar_del0
*822 dstage\[9\]\.id\.trim1bar_del1
*823 dstage\[9\]\.id\.trim_inhibit
*824 ibufp00
*825 ibufp01
*826 ibufp10
*827 ibufp11
*828 id0\.deglitch_buf
*829 id0\.delaybuf0
*830 id0\.delaybuf1
*831 id0\.delayen0
*832 id0\.delayen1
*833 id0\.delayenb0
*834 id0\.delayenb1
*835 id0\.delayint0
*836 id0\.t0_latch
*837 id0\.t0l_delay
*838 id0\.t0l_delay2
*839 id0\.t0ld_or
*840 id0\.t1_latch
*841 id0\.t1l_delay
*842 id0\.t1l_delay2
*843 id0\.t1ld_or
*844 id0\.trim0bar
*845 id0\.trim0bar_del0
*846 id0\.trim0bar_del1
*847 id0\.trim1bar
*848 id0\.trim1bar_del0
*849 id0\.trim1bar_del1
*850 id0\.trim_inhibit
*851 id1\.deglitch_buf
*852 id1\.delaybuf0
*853 id1\.delaybuf1
*854 id1\.delayen0
*855 id1\.delayen1
*856 id1\.delayenb0
*857 id1\.delayenb1
*858 id1\.delayint0
*859 id1\.t0_latch
*860 id1\.t0l_delay
*861 id1\.t0l_delay2
*862 id1\.t0ld_or
*863 id1\.t1_latch
*864 id1\.t1l_delay
*865 id1\.t1l_delay2
*866 id1\.t1ld_or
*867 id1\.trim0bar
*868 id1\.trim0bar_del0
*869 id1\.trim0bar_del1
*870 id1\.trim1bar
*871 id1\.trim1bar_del0
*872 id1\.trim1bar_del1
*873 id1\.trim_inhibit
*874 iss\.cg_and
*875 iss\.ctrlen0
*876 iss\.deglitch_buf
*877 iss\.delaybuf0
*878 iss\.delayen0
*879 iss\.delayen1
*880 iss\.delayenb0
*881 iss\.delayenb1
*882 iss\.delayint0
*883 iss\.nreset_delay
*884 iss\.reseten0
*885 iss\.reseten0_1
*886 iss\.t0_latch
*887 iss\.t1_latch
*888 iss\.trim1bar
*889 iss\.trim_inhibit

*PORTS
clockp[0] O
clockp[1] O
reset I
trim[0] I
trim[10] I
trim[11] I
trim[12] I
trim[13] I
trim[14] I
trim[15] I
trim[16] I
trim[17] I
trim[18] I
trim[19] I
trim[1] I
trim[20] I
trim[21] I
trim[22] I
trim[23] I
trim[24] I
trim[25] I
trim[2] I
trim[3] I
trim[4] I
trim[5] I
trim[6] I
trim[7] I
trim[8] I
trim[9] I

*D_NET *3 0.00363885
*CONN
*P clockp[0] O
*I *825:ZN O *D gf180mcu_fd_sc_mcu7t5v0__clkinv_8
*CAP
1 clockp[0] 0.000648968
2 *825:ZN 0.000648968
3 clockp[0] *620:EN 0
4 clockp[0] *622:EN 0
5 clockp[0] *622:I 0.000357852
6 clockp[0] *624:I 0.000251967
7 clockp[0] *626:I 1.40571e-05
8 clockp[0] *635:I 0
9 clockp[0] *822:I 0.00107966
10 clockp[0] *19:13 3.08902e-05
11 clockp[0] *23:15 0.000160935
12 clockp[0] *76:14 0.000445547
*RES
1 *825:ZN clockp[0] 20.3319 
*END

*D_NET *4 0.00123398
*CONN
*P clockp[1] O
*I *827:ZN O *D gf180mcu_fd_sc_mcu7t5v0__clkinv_8
*CAP
1 clockp[1] 0.000377308
2 *827:ZN 0.000377308
3 clockp[1] *628:A1 0
4 clockp[1] *780:I 5.14116e-06
5 clockp[1] *826:I 0.000149579
6 clockp[1] *827:I 0.00032464
*RES
1 *827:ZN clockp[1] 7.53186 
*END

*D_NET *5 0.0111863
*CONN
*P reset I
*I *326:I I *D gf180mcu_fd_sc_mcu7t5v0__antenna
*I *884:EN I *D gf180mcu_fd_sc_mcu7t5v0__invz_1
*I *593:I I *D gf180mcu_fd_sc_mcu7t5v0__clkinv_1
*I *325:I I *D gf180mcu_fd_sc_mcu7t5v0__antenna
*I *875:A1 I *D gf180mcu_fd_sc_mcu7t5v0__nor2_2
*I *300:I I *D gf180mcu_fd_sc_mcu7t5v0__antenna
*CAP
1 reset 0.00165637
2 *326:I 0.000273385
3 *884:EN 0.0001147
4 *593:I 1.74978e-05
5 *325:I 0
6 *875:A1 7.43682e-05
7 *300:I 0
8 *5:38 0.00023698
9 *5:31 0.000197875
10 *5:27 0.000578766
11 *5:23 0.00097664
12 *5:17 0.00226569
13 *326:I *715:EN 1.9953e-05
14 *326:I *730:I 0.000154451
15 *326:I *744:E 0
16 *326:I *884:I 4.90639e-05
17 *326:I *176:19 3.56141e-05
18 *593:I *30:29 0
19 *593:I *53:82 8.55242e-05
20 *875:A1 *30:29 0.000307983
21 *875:A1 *292:6 0.000121764
22 *884:EN *313:I 0.000186585
23 *884:EN *740:D 5.76373e-06
24 *884:EN *754:A2 0.000178949
25 *884:EN *874:A1 2.40654e-06
26 *884:EN *185:24 2.88786e-05
27 *5:17 *709:I 0.000482145
28 *5:17 *712:I 4.60055e-05
29 *5:17 *713:EN 0
30 *5:17 *715:EN 9.04915e-06
31 *5:17 *717:RN 0
32 *5:17 *720:A1 0.000867545
33 *5:17 *721:D 0
34 *5:17 *731:A2 2.57058e-06
35 *5:17 *800:A1 0.00018401
36 *5:17 *884:I 6.10944e-05
37 *5:17 *164:12 2.13476e-05
38 *5:17 *176:10 6.80238e-06
39 *5:17 *184:8 0
40 *5:23 *731:A2 0
41 *5:23 *800:A1 0.000227452
42 *5:23 *185:14 0
43 *5:27 *616:A1 4.71425e-05
44 *5:27 *800:A1 0.000387688
45 *5:27 *823:A1 5.37016e-05
46 *5:27 *101:8 3.08875e-05
47 *5:27 *185:24 0.00010922
48 *5:31 *616:A1 0.00017557
49 *5:31 *823:A1 7.7322e-05
50 *5:38 *30:29 0.000366193
51 *5:38 *53:82 1.1971e-05
52 *5:38 *53:89 6.63508e-06
53 *5:38 *53:231 1.66121e-06
54 *5:38 *292:6 0.000441055
*RES
1 reset *5:17 16.8799 
2 *5:17 *5:23 6.78 
3 *5:23 *5:27 3.496 
4 *5:27 *5:31 5.336 
5 *5:31 *300:I 4.5 
6 *5:31 *5:38 2.204 
7 *5:38 *875:A1 5.564 
8 *5:38 *325:I 4.5 
9 *5:27 *593:I 9.228 
10 *5:23 *884:EN 10.292 
11 *5:17 *326:I 6.704 
*END

*D_NET *6 0.00524611
*CONN
*P trim[0] I
*I *321:I I *D gf180mcu_fd_sc_mcu7t5v0__antenna
*I *836:D I *D gf180mcu_fd_sc_mcu7t5v0__latrnq_1
*CAP
1 trim[0] 0.00010545
2 *321:I 0.000396102
3 *836:D 0.00032129
4 *6:5 0.000822842
5 *321:I *650:I 5.51024e-05
6 *321:I *842:I 0.000396904
7 *321:I *859:D 2.40463e-05
8 *321:I *271:28 1.85312e-05
9 *321:I *277:10 0
10 *836:D *301:I 0.000166432
11 *836:D *315:I 0.00183772
12 *836:D *322:I 5.30492e-05
13 *836:D *323:I 0.000642022
14 *836:D *27:21 5.35875e-05
15 *836:D *28:13 0.000324249
16 *6:5 *859:D 9.45347e-06
17 *6:5 *17:5 1.9328e-05
*RES
1 trim[0] *6:5 0.798 
2 *6:5 *836:D 24.232 
3 *6:5 *321:I 11.964 
*END

*D_NET *7 0.00437365
*CONN
*P trim[10] I
*I *602:D I *D gf180mcu_fd_sc_mcu7t5v0__latrnq_1
*I *301:I I *D gf180mcu_fd_sc_mcu7t5v0__antenna
*CAP
1 trim[10] 0.000254209
2 *602:D 0
3 *301:I 0.000520121
4 *7:9 0.00077433
5 *301:I *315:I 0.000767903
6 *301:I *322:I 8.69862e-05
7 *301:I *323:I 1.95806e-05
8 *301:I *763:D 3.52802e-05
9 *301:I *763:E 0.000216684
10 *301:I *859:E 3.2743e-05
11 *301:I *863:D 0.000415641
12 *301:I *10:15 0.000243973
13 *301:I *285:8 0.000493324
14 *7:9 *324:I 6.84221e-05
15 *7:9 *602:E 8.04139e-05
16 *7:9 *611:I 8.04139e-05
17 *7:9 *763:E 3.00299e-05
18 *7:9 *767:D 6.87223e-05
19 *7:9 *8:23 4.99315e-06
20 *7:9 *10:15 5.76373e-06
21 *7:9 *31:17 7.68597e-06
22 *836:D *301:I 0.000166432
*RES
1 trim[10] *7:9 6.438 
2 *7:9 *301:I 11.416 
3 *7:9 *602:D 4.5 
*END

*D_NET *8 0.00655115
*CONN
*P trim[11] I
*I *303:I I *D gf180mcu_fd_sc_mcu7t5v0__antenna
*I *625:D I *D gf180mcu_fd_sc_mcu7t5v0__latrnq_1
*CAP
1 trim[11] 0.00146168
2 *303:I 0.000301676
3 *625:D 0
4 *8:23 0.00176336
5 *303:I *631:I 3.17618e-05
6 *303:I *634:I 0.000236822
7 *303:I *639:A1 0.000242228
8 *303:I *813:D 0
9 *303:I *22:9 1.5961e-05
10 *8:23 *323:I 2.05156e-05
11 *8:23 *813:D 0
12 *8:23 *9:9 2.1322e-05
13 *8:23 *13:13 0.00163004
14 *8:23 *18:11 0.000318631
15 *8:23 *20:5 0
16 *8:23 *21:17 0.000168875
17 *8:23 *22:9 0.000303258
18 *8:23 *31:17 3.00299e-05
19 *7:9 *8:23 4.99315e-06
*RES
1 trim[11] *8:23 31.794 
2 *8:23 *625:D 9 
3 *8:23 *303:I 12.04 
*END

*D_NET *9 0.00617815
*CONN
*P trim[12] I
*I *886:D I *D gf180mcu_fd_sc_mcu7t5v0__latrnq_1
*I *327:I I *D gf180mcu_fd_sc_mcu7t5v0__antenna
*CAP
1 trim[12] 0.00158511
2 *886:D 5.34931e-05
3 *327:I 0.000134652
4 *9:9 0.00177326
5 *327:I *618:I 0.000139799
6 *327:I *886:E 0.000142225
7 *886:D *886:E 2.17248e-05
8 *9:9 *599:EN 0.000578344
9 *9:9 *616:A2 0.00032464
10 *9:9 *618:I 1.87089e-05
11 *9:9 *650:I 4.2269e-05
12 *9:9 *767:D 0
13 *9:9 *770:A1 0.000139346
14 *9:9 *770:A2 0
15 *9:9 *774:I 0
16 *9:9 *775:I 0
17 *9:9 *776:I 0.000300828
18 *9:9 *867:I 9.98239e-05
19 *9:9 *10:15 1.41373e-05
20 *9:9 *52:14 0.000257086
21 *9:9 *54:16 0.000396912
22 *9:9 *54:36 0.000134469
23 *9:9 *198:8 0
24 *9:9 *198:23 0
25 *9:9 *205:16 0
26 *8:23 *9:9 2.1322e-05
*RES
1 trim[12] *9:9 15.634 
2 *9:9 *327:I 5.64 
3 *9:9 *886:D 4.956 
*END

*D_NET *10 0.00979558
*CONN
*P trim[13] I
*I *840:D I *D gf180mcu_fd_sc_mcu7t5v0__latrnq_1
*I *322:I I *D gf180mcu_fd_sc_mcu7t5v0__antenna
*CAP
1 trim[13] 0.000432868
2 *840:D 0
3 *322:I 0.000651965
4 *10:15 0.00108483
5 *322:I *315:I 0.000360031
6 *322:I *763:D 0.000140167
7 *322:I *836:E 0.000323697
8 *322:I *843:A1 4.05784e-05
9 *322:I *851:I 3.25356e-05
10 *322:I *859:E 0.000726012
11 *322:I *859:RN 0.000256194
12 *322:I *863:D 0.000635427
13 *322:I *873:A2 0.000540425
14 *322:I *13:13 4.18914e-05
15 *322:I *25:17 0.000255707
16 *322:I *53:151 0.00048761
17 *10:15 *323:I 3.00299e-05
18 *10:15 *602:E 4.02804e-05
19 *10:15 *763:D 0.000149334
20 *10:15 *767:D 0.000910626
21 *10:15 *863:D 0.000857591
22 *10:15 *11:9 0.00138528
23 *10:15 *30:29 8.59272e-06
24 *301:I *322:I 8.69862e-05
25 *301:I *10:15 0.000243973
26 *836:D *322:I 5.30492e-05
27 *7:9 *10:15 5.76373e-06
28 *9:9 *10:15 1.41373e-05
*RES
1 trim[13] *10:15 20.378 
2 *10:15 *322:I 22.696 
3 *10:15 *840:D 4.5 
*END

*D_NET *11 0.0109867
*CONN
*P trim[14] I
*I *324:I I *D gf180mcu_fd_sc_mcu7t5v0__antenna
*I *863:D I *D gf180mcu_fd_sc_mcu7t5v0__latrnq_1
*CAP
1 trim[14] 0.000209357
2 *324:I 0.000829003
3 *863:D 0.000323509
4 *11:9 0.00136187
5 *324:I *597:I 0.000315674
6 *324:I *611:I 0.00015573
7 *324:I *766:A2 0.000428666
8 *324:I *850:A1 1.49066e-06
9 *324:I *30:29 0.000126989
10 *324:I *54:16 1.91917e-06
11 *324:I *197:10 0.000124246
12 *324:I *197:23 0.000419043
13 *863:D *323:I 0.000639173
14 *863:D *763:D 3.44754e-05
15 *863:D *873:A2 0.000438681
16 *863:D *29:5 6.04444e-06
17 *863:D *30:29 8.73277e-05
18 *863:D *285:8 0.000199393
19 *11:9 *323:I 0.00175592
20 *11:9 *767:D 0.000154348
21 *11:9 *12:13 1.14445e-05
22 *301:I *863:D 0.000415641
23 *322:I *863:D 0.000635427
24 *7:9 *324:I 6.84221e-05
25 *10:15 *863:D 0.000857591
26 *10:15 *11:9 0.00138528
*RES
1 trim[14] *11:9 9.63 
2 *11:9 *863:D 19.96 
3 *11:9 *324:I 20.644 
*END

*D_NET *12 0.00944682
*CONN
*P trim[15] I
*I *306:I I *D gf180mcu_fd_sc_mcu7t5v0__antenna
*I *652:D I *D gf180mcu_fd_sc_mcu7t5v0__latrnq_1
*CAP
1 trim[15] 0.00195859
2 *306:I 0
3 *652:D 0.000672237
4 *12:13 0.00263082
5 *652:D *650:I 0
6 *652:D *765:I 0.000206341
7 *652:D *828:I 7.45328e-07
8 *652:D *831:I 2.96621e-05
9 *652:D *831:ZN 7.83779e-05
10 *652:D *832:EN 0.000141739
11 *652:D *833:EN 0.000794182
12 *652:D *834:I 4.71429e-05
13 *652:D *835:I 5.87561e-06
14 *652:D *837:I 4.51132e-05
15 *652:D *856:I 7.6673e-05
16 *652:D *30:29 0.000270604
17 *652:D *267:8 1.34649e-05
18 *12:13 *323:I 0
19 *12:13 *597:EN 0
20 *12:13 *599:I 6.25143e-05
21 *12:13 *600:EN 8.0338e-05
22 *12:13 *601:I 0
23 *12:13 *609:A1 4.88658e-05
24 *12:13 *609:A2 0
25 *12:13 *613:I 0.000521664
26 *12:13 *618:I 0
27 *12:13 *764:I 7.38041e-06
28 *12:13 *771:I 0.000406056
29 *12:13 *774:I 0.000333958
30 *12:13 *775:I 2.05156e-05
31 *12:13 *850:A1 0.000183643
32 *12:13 *13:13 3.36602e-06
33 *12:13 *31:17 0
34 *12:13 *35:8 0
35 *12:13 *45:23 0.000718842
36 *12:13 *54:16 5.09739e-06
37 *12:13 *57:17 6.24979e-05
38 *12:13 *197:23 9.06578e-06
39 *12:13 *245:12 0
40 *11:9 *12:13 1.14445e-05
*RES
1 trim[15] *12:13 17.686 
2 *12:13 *652:D 19.58 
3 *12:13 *306:I 4.5 
*END

*D_NET *13 0.0180856
*CONN
*P trim[16] I
*I *308:I I *D gf180mcu_fd_sc_mcu7t5v0__antenna
*I *675:D I *D gf180mcu_fd_sc_mcu7t5v0__latrnq_1
*CAP
1 trim[16] 0.00160524
2 *308:I 0.000222738
3 *675:D 3.93723e-05
4 *13:13 0.00186735
5 *308:I *680:I 0
6 *308:I *708:A1 0
7 *308:I *857:EN 0.00012053
8 *308:I *864:I 0.000453575
9 *308:I *53:254 8.81341e-06
10 *308:I *53:258 0.00018371
11 *675:D *708:A1 1.3758e-05
12 *675:D *53:254 1.3758e-05
13 *13:13 *323:I 0.0010892
14 *13:13 *652:RN 0.000514812
15 *13:13 *843:A1 0.00040564
16 *13:13 *857:EN 0.00021006
17 *13:13 *864:I 0.00406207
18 *13:13 *866:A1 0.00014967
19 *13:13 *14:17 3.36602e-06
20 *13:13 *24:15 0.000851563
21 *13:13 *25:17 6.76695e-05
22 *13:13 *31:17 0.00254474
23 *13:13 *53:258 0.00198265
24 *322:I *13:13 4.18914e-05
25 *8:23 *13:13 0.00163004
26 *12:13 *13:13 3.36602e-06
*RES
1 trim[16] *13:13 36.398 
2 *13:13 *675:D 9.228 
3 *13:13 *308:I 11.128 
*END

*D_NET *14 0.0108042
*CONN
*P trim[17] I
*I *310:I I *D gf180mcu_fd_sc_mcu7t5v0__antenna
*I *698:D I *D gf180mcu_fd_sc_mcu7t5v0__latrnq_1
*CAP
1 trim[17] 0.00209716
2 *310:I 0
3 *698:D 0.000232815
4 *14:17 0.00232998
5 *698:D *731:A1 0.000182742
6 *698:D *758:I 1.72912e-05
7 *698:D *837:I 1.87895e-05
8 *698:D *56:22 5.14116e-06
9 *14:17 *323:I 6.90153e-05
10 *14:17 *755:I 0
11 *14:17 *756:I 0.000524951
12 *14:17 *758:I 0.000171929
13 *14:17 *760:I 0.000432306
14 *14:17 *800:A1 0.000955749
15 *14:17 *817:I 0.000226589
16 *14:17 *823:A1 0
17 *14:17 *837:I 1.02686e-05
18 *14:17 *874:A1 2.333e-05
19 *14:17 *874:A2 0.000126222
20 *14:17 *880:I 0.000147305
21 *14:17 *15:27 0.000911151
22 *14:17 *31:17 6.33531e-06
23 *14:17 *53:95 0
24 *14:17 *56:22 1.74287e-05
25 *14:17 *189:8 7.30678e-05
26 *14:17 *245:12 0.00222126
27 *13:13 *14:17 3.36602e-06
*RES
1 trim[17] *14:17 25.59 
2 *14:17 *698:D 14.868 
3 *14:17 *310:I 4.5 
*END

*D_NET *15 0.0105659
*CONN
*P trim[18] I
*I *312:I I *D gf180mcu_fd_sc_mcu7t5v0__antenna
*I *721:D I *D gf180mcu_fd_sc_mcu7t5v0__latrnq_1
*CAP
1 trim[18] 0.0026913
2 *312:I 0
3 *721:D 0.000107947
4 *15:27 0.00279925
5 *721:D *731:A2 0.00018301
6 *721:D *779:I 7.48145e-05
7 *721:D *56:14 0.000191397
8 *721:D *184:8 5.70161e-05
9 *15:27 *603:I 0
10 *15:27 *731:A2 1.34641e-06
11 *15:27 *744:RN 0.001217
12 *15:27 *754:A2 0.000799461
13 *15:27 *779:I 0.000176935
14 *15:27 *800:A1 1.32603e-05
15 *15:27 *812:A2 9.1363e-05
16 *15:27 *817:I 0.0002451
17 *15:27 *878:EN 0.000269865
18 *15:27 *889:A2 0
19 *15:27 *16:7 2.6713e-06
20 *15:27 *53:48 9.26705e-05
21 *15:27 *53:62 0
22 *15:27 *56:20 2.08286e-05
23 *15:27 *297:6 0.000493315
24 *15:27 *297:12 0.000126196
25 *5:17 *721:D 0
26 *14:17 *15:27 0.000911151
*RES
1 trim[18] *15:27 43.362 
2 *15:27 *721:D 5.944 
3 *15:27 *312:I 4.5 
*END

*D_NET *16 0.00667273
*CONN
*P trim[19] I
*I *314:I I *D gf180mcu_fd_sc_mcu7t5v0__antenna
*I *744:D I *D gf180mcu_fd_sc_mcu7t5v0__latrnq_1
*CAP
1 trim[19] 0.00226243
2 *314:I 0.00011717
3 *744:D 0
4 *16:7 0.0023796
5 *314:I *744:E 7.45328e-07
6 *314:I *783:I 0
7 *314:I *878:I 5.83188e-05
8 *16:7 *603:I 0.000623565
9 *16:7 *804:I 0.000130746
10 *16:7 *812:A1 5.50406e-05
11 *16:7 *812:A2 7.38372e-06
12 *16:7 *816:A1 0
13 *16:7 *818:I 0.000687105
14 *16:7 *820:I 2.76919e-05
15 *16:7 *878:EN 0
16 *16:7 *879:EN 6.03845e-05
17 *16:7 *879:ZN 4.18603e-05
18 *16:7 *882:I 6.26968e-05
19 *16:7 *889:A2 0.000134113
20 *16:7 *18:11 2.12102e-05
21 *15:27 *16:7 2.6713e-06
*RES
1 trim[19] *16:7 19.434 
2 *16:7 *744:D 4.5 
3 *16:7 *314:I 5.184 
*END

*D_NET *17 0.0103918
*CONN
*P trim[1] I
*I *859:D I *D gf180mcu_fd_sc_mcu7t5v0__latrnq_1
*I *323:I I *D gf180mcu_fd_sc_mcu7t5v0__antenna
*CAP
1 trim[1] 5.55201e-05
2 *859:D 0.000197976
3 *323:I 0.000497838
4 *17:5 0.000751333
5 *323:I *315:I 0.000807848
6 *323:I *613:I 0
7 *323:I *767:D 2.79476e-05
8 *323:I *18:11 0.000746059
9 *323:I *31:17 0.00281588
10 *859:D *842:I 6.57222e-06
11 *859:D *843:A1 3.73627e-05
12 *859:D *859:E 8.55327e-05
13 *859:D *24:15 2.67105e-05
14 *17:5 *24:15 1.68873e-05
15 *301:I *323:I 1.95806e-05
16 *321:I *859:D 2.40463e-05
17 *836:D *323:I 0.000642022
18 *863:D *323:I 0.000639173
19 *6:5 *859:D 9.45347e-06
20 *6:5 *17:5 1.9328e-05
21 *8:23 *323:I 2.05156e-05
22 *10:15 *323:I 3.00299e-05
23 *11:9 *323:I 0.00175592
24 *12:13 *323:I 0
25 *13:13 *323:I 0.0010892
26 *14:17 *323:I 6.90153e-05
*RES
1 trim[1] *17:5 0.494 
2 *17:5 *323:I 33.048 
3 *17:5 *859:D 10.368 
*END

*D_NET *18 0.00578734
*CONN
*P trim[20] I
*I *316:I I *D gf180mcu_fd_sc_mcu7t5v0__antenna
*I *767:D I *D gf180mcu_fd_sc_mcu7t5v0__latrnq_1
*CAP
1 trim[20] 0.000317068
2 *316:I 0
3 *767:D 0.000301277
4 *18:11 0.000618345
5 *767:D *302:I 0.000122995
6 *767:D *602:E 0.000165994
7 *767:D *21:17 0.000118441
8 *18:11 *19:13 2.12102e-05
9 *18:11 *21:17 0.00187446
10 *323:I *767:D 2.79476e-05
11 *323:I *18:11 0.000746059
12 *7:9 *767:D 6.87223e-05
13 *8:23 *18:11 0.000318631
14 *9:9 *767:D 0
15 *10:15 *767:D 0.000910626
16 *11:9 *767:D 0.000154348
17 *16:7 *18:11 2.12102e-05
*RES
1 trim[20] *18:11 10.77 
2 *18:11 *767:D 17.756 
3 *18:11 *316:I 4.5 
*END

*D_NET *19 0.00846167
*CONN
*P trim[21] I
*I *790:D I *D gf180mcu_fd_sc_mcu7t5v0__latrnq_1
*I *318:I I *D gf180mcu_fd_sc_mcu7t5v0__antenna
*CAP
1 trim[21] 0.00110913
2 *790:D 3.23665e-05
3 *318:I 0
4 *19:13 0.00114149
5 *790:D *631:I 0.000530811
6 *790:D *78:23 2.59502e-05
7 *790:D *78:25 0.000149685
8 *19:13 *621:ZN 3.35674e-05
9 *19:13 *622:I 0.000183652
10 *19:13 *624:I 0.000140167
11 *19:13 *631:I 0.000641859
12 *19:13 *636:I 0.000176947
13 *19:13 *805:EN 0.000117335
14 *19:13 *816:A1 0.000286683
15 *19:13 *820:I 5.41789e-05
16 *19:13 *821:I 0.00325446
17 *19:13 *824:I 2.9378e-06
18 *19:13 *825:I 0.000146325
19 *19:13 *20:5 3.44508e-05
20 *19:13 *53:121 4.94368e-05
21 *19:13 *59:10 0.000119807
22 *19:13 *78:25 9.94917e-05
23 *19:13 *79:6 7.88344e-05
24 clockp[0] *19:13 3.08902e-05
25 *18:11 *19:13 2.12102e-05
*RES
1 trim[21] *19:13 22.566 
2 *19:13 *318:I 9 
3 *19:13 *790:D 10.292 
*END

*D_NET *20 0.00104975
*CONN
*P trim[22] I
*I *813:D I *D gf180mcu_fd_sc_mcu7t5v0__latrnq_1
*I *320:I I *D gf180mcu_fd_sc_mcu7t5v0__antenna
*CAP
1 trim[22] 0.000142672
2 *813:D 0.00014145
3 *320:I 0
4 *20:5 0.000284122
5 *813:D *811:I 0.000255714
6 *813:D *813:E 9.26705e-05
7 *813:D *821:I 4.40785e-05
8 *813:D *21:17 1.83229e-05
9 *20:5 *821:I 3.16765e-06
10 *20:5 *21:17 3.31044e-05
11 *303:I *813:D 0
12 *8:23 *813:D 0
13 *8:23 *20:5 0
14 *19:13 *20:5 3.44508e-05
*RES
1 trim[22] *20:5 1.102 
2 *20:5 *320:I 9 
3 *20:5 *813:D 10.368 
*END

*D_NET *21 0.00624173
*CONN
*P trim[23] I
*I *606:D I *D gf180mcu_fd_sc_mcu7t5v0__latrnq_1
*I *302:I I *D gf180mcu_fd_sc_mcu7t5v0__antenna
*CAP
1 trim[23] 0.0010882
2 *606:D 0
3 *302:I 0.000139758
4 *21:17 0.00122796
5 *302:I *602:E 0.000218124
6 *302:I *52:14 6.17803e-05
7 *21:17 *608:I 9.92577e-05
8 *21:17 *614:I 3.00343e-05
9 *21:17 *809:D 0.000117057
10 *21:17 *811:I 9.37296e-06
11 *21:17 *813:E 7.60436e-05
12 *21:17 *821:I 0.000538593
13 *21:17 *22:9 2.83608e-06
14 *21:17 *31:17 7.83779e-05
15 *21:17 *52:14 9.26705e-05
16 *21:17 *53:135 6.77492e-05
17 *21:17 *53:141 3.00299e-05
18 *21:17 *53:209 0
19 *21:17 *75:8 2.76775e-05
20 *767:D *302:I 0.000122995
21 *767:D *21:17 0.000118441
22 *813:D *21:17 1.83229e-05
23 *8:23 *21:17 0.000168875
24 *18:11 *21:17 0.00187446
25 *20:5 *21:17 3.31044e-05
*RES
1 trim[23] *21:17 16.014 
2 *21:17 *302:I 5.792 
3 *21:17 *606:D 4.5 
*END

*D_NET *22 0.00325721
*CONN
*P trim[24] I
*I *629:D I *D gf180mcu_fd_sc_mcu7t5v0__latrnq_1
*I *304:I I *D gf180mcu_fd_sc_mcu7t5v0__antenna
*CAP
1 trim[24] 0.000167459
2 *629:D 0
3 *304:I 0.000162052
4 *22:9 0.000329511
5 *304:I *631:I 6.36666e-05
6 *304:I *633:I 0.000870823
7 *304:I *634:I 0.000868536
8 *304:I *807:EN 0.000173764
9 *304:I *67:8 9.88736e-06
10 *22:9 *629:E 0.00012749
11 *22:9 *629:RN 9.17202e-06
12 *22:9 *633:I 1.32333e-05
13 *22:9 *634:I 0.000104379
14 *22:9 *23:15 3.5185e-05
15 *303:I *22:9 1.5961e-05
16 *8:23 *22:9 0.000303258
17 *21:17 *22:9 2.83608e-06
*RES
1 trim[24] *22:9 6.59 
2 *22:9 *304:I 16.844 
3 *22:9 *629:D 4.5 
*END

*D_NET *23 0.00658108
*CONN
*P trim[25] I
*I *328:I I *D gf180mcu_fd_sc_mcu7t5v0__antenna
*I *887:D I *D gf180mcu_fd_sc_mcu7t5v0__latrnq_1
*CAP
1 trim[25] 0.00143322
2 *328:I 0
3 *887:D 7.05596e-05
4 *23:15 0.00150378
5 *887:D *618:I 8.41354e-05
6 *887:D *804:I 0.00042303
7 *887:D *816:A1 0.000390043
8 *887:D *53:108 3.83835e-06
9 *887:D *229:8 0
10 *23:15 *618:I 0.000144093
11 *23:15 *621:EN 4.33077e-05
12 *23:15 *621:I 0.000468743
13 *23:15 *622:EN 6.73834e-05
14 *23:15 *622:I 0
15 *23:15 *623:EN 0.000134206
16 *23:15 *626:I 0.000184283
17 *23:15 *632:A1 0.000293595
18 *23:15 *632:A2 0
19 *23:15 *633:I 0.000558109
20 *23:15 *638:I 0.000116627
21 *23:15 *639:A2 7.54435e-05
22 *23:15 *805:ZN 1.78575e-05
23 *23:15 *822:I 0.000275053
24 *23:15 *67:23 6.57525e-05
25 *23:15 *76:27 3.11649e-05
26 *23:15 *229:8 7.45328e-07
27 clockp[0] *23:15 0.000160935
28 *22:9 *23:15 3.5185e-05
*RES
1 trim[25] *23:15 17.61 
2 *23:15 *887:D 14.944 
3 *23:15 *328:I 4.5 
*END

*D_NET *24 0.00696435
*CONN
*P trim[2] I
*I *648:D I *D gf180mcu_fd_sc_mcu7t5v0__latrnq_1
*I *305:I I *D gf180mcu_fd_sc_mcu7t5v0__antenna
*CAP
1 trim[2] 0.000922049
2 *648:D 8.11308e-05
3 *305:I 0.000242822
4 *24:15 0.001246
5 *305:I *646:EN 1.38735e-05
6 *305:I *649:I 2.44183e-06
7 *305:I *651:A2 9.11181e-05
8 *305:I *654:I 7.24161e-06
9 *305:I *91:10 0.000241525
10 *648:D *649:I 1.47993e-05
11 *648:D *91:10 0.000229983
12 *24:15 *656:I 0.000135941
13 *24:15 *855:ZN 0.000341993
14 *24:15 *857:EN 0.00107985
15 *24:15 *860:I 0.000480423
16 *24:15 *25:17 4.46032e-06
17 *24:15 *90:27 0.000669349
18 *24:15 *277:10 0.000264187
19 *859:D *24:15 2.67105e-05
20 *13:13 *24:15 0.000851563
21 *17:5 *24:15 1.68873e-05
*RES
1 trim[2] *24:15 15.33 
2 *24:15 *305:I 6.172 
3 *24:15 *648:D 5.184 
*END

*D_NET *25 0.00909047
*CONN
*P trim[3] I
*I *307:I I *D gf180mcu_fd_sc_mcu7t5v0__antenna
*I *671:D I *D gf180mcu_fd_sc_mcu7t5v0__latrnq_1
*CAP
1 trim[3] 0.00115957
2 *307:I 0.000418103
3 *671:D 0.000234609
4 *25:17 0.00181228
5 *307:I *662:A2 0.000189107
6 *307:I *685:A1 5.09739e-06
7 *307:I *98:10 0.00040534
8 *307:I *101:34 0.000268053
9 *671:D *671:E 0.000382092
10 *671:D *685:A2 4.48754e-05
11 *671:D *708:A1 1.19438e-05
12 *671:D *864:I 0.000174064
13 *671:D *26:13 0.000147941
14 *671:D *98:10 2.59409e-05
15 *25:17 *660:I 0.00104994
16 *25:17 *839:A2 0.000517742
17 *25:17 *843:A1 0.000315386
18 *25:17 *864:I 0.000207467
19 *25:17 *26:13 0.00133671
20 *25:17 *98:10 5.63729e-05
21 *322:I *25:17 0.000255707
22 *13:13 *25:17 6.76695e-05
23 *24:15 *25:17 4.46032e-06
*RES
1 trim[3] *25:17 21.35 
2 *25:17 *671:D 11.812 
3 *25:17 *307:I 12.496 
*END

*D_NET *26 0.0094859
*CONN
*P trim[4] I
*I *309:I I *D gf180mcu_fd_sc_mcu7t5v0__antenna
*I *694:D I *D gf180mcu_fd_sc_mcu7t5v0__latrnq_1
*CAP
1 trim[4] 0.00138408
2 *309:I 0
3 *694:D 8.83896e-05
4 *26:13 0.00147247
5 *694:D *675:E 0
6 *694:D *694:RN 7.83779e-05
7 *694:D *708:A1 2.96621e-05
8 *694:D *27:21 0.000475706
9 *694:D *272:20 0.000482567
10 *26:13 *315:I 2.09451e-05
11 *26:13 *685:A2 0.000307987
12 *26:13 *708:A1 1.20471e-05
13 *26:13 *839:A1 0.00299093
14 *26:13 *839:A2 0.000439361
15 *26:13 *27:21 0.000106813
16 *26:13 *99:20 1.47882e-05
17 *26:13 *272:20 9.71294e-05
18 *671:D *26:13 0.000147941
19 *25:17 *26:13 0.00133671
*RES
1 trim[4] *26:13 19.358 
2 *26:13 *694:D 15.248 
3 *26:13 *309:I 4.5 
*END

*D_NET *27 0.0131948
*CONN
*P trim[5] I
*I *311:I I *D gf180mcu_fd_sc_mcu7t5v0__antenna
*I *717:D I *D gf180mcu_fd_sc_mcu7t5v0__latrnq_1
*CAP
1 trim[5] 0.00242642
2 *311:I 0.000401338
3 *717:D 0
4 *27:21 0.00282776
5 *311:I *714:EN 9.26705e-05
6 *311:I *717:E 0.000123561
7 *311:I *717:RN 8.7332e-05
8 *311:I *721:E 0
9 *311:I *728:I 0
10 *311:I *731:A2 0.000135135
11 *311:I *800:A1 1.5015e-05
12 *311:I *156:19 0
13 *27:21 *315:I 0.000142809
14 *27:21 *662:A1 0.000410371
15 *27:21 *689:EN 0
16 *27:21 *695:I 4.13518e-05
17 *27:21 *696:I 0
18 *27:21 *697:A1 1.44832e-05
19 *27:21 *699:I 0.000196402
20 *27:21 *700:I 3.19826e-05
21 *27:21 *701:A1 4.66966e-05
22 *27:21 *706:I 8.12999e-05
23 *27:21 *707:I 0.000126882
24 *27:21 *714:EN 0.000566884
25 *27:21 *717:E 9.26705e-05
26 *27:21 *726:I 1.66555e-05
27 *27:21 *829:I 0.000603474
28 *27:21 *830:I 0.000648711
29 *27:21 *831:EN 0.000464272
30 *27:21 *831:I 0.00045128
31 *27:21 *831:ZN 0.00044442
32 *27:21 *839:A1 8.54817e-05
33 *27:21 *855:I 0
34 *27:21 *28:13 0.000151978
35 *27:21 *56:14 0
36 *27:21 *123:10 0.00013909
37 *27:21 *134:8 8.2746e-05
38 *27:21 *134:19 1.54006e-05
39 *27:21 *257:12 0.000115095
40 *27:21 *272:20 0.00147904
41 *694:D *27:21 0.000475706
42 *836:D *27:21 5.35875e-05
43 *26:13 *27:21 0.000106813
*RES
1 trim[5] *27:21 28.174 
2 *27:21 *717:D 4.5 
3 *27:21 *311:I 7.692 
*END

*D_NET *28 0.0150596
*CONN
*P trim[6] I
*I *740:D I *D gf180mcu_fd_sc_mcu7t5v0__latrnq_1
*I *313:I I *D gf180mcu_fd_sc_mcu7t5v0__antenna
*CAP
1 trim[6] 0.00139624
2 *740:D 2.63051e-05
3 *313:I 0.00024166
4 *28:13 0.00166421
5 *313:I *754:A2 1.73145e-05
6 *313:I *838:I 8.28569e-05
7 *313:I *874:A1 5.85821e-06
8 *313:I *185:24 0
9 *740:D *754:A2 1.02578e-05
10 *28:13 *662:A1 5.33384e-05
11 *28:13 *694:RN 0.00089396
12 *28:13 *754:A1 0.00052618
13 *28:13 *754:A2 0.000199393
14 *28:13 *763:D 3.18755e-05
15 *28:13 *779:I 7.24161e-06
16 *28:13 *832:EN 0.000135238
17 *28:13 *838:I 0.000515183
18 *28:13 *839:A1 0.00206234
19 *28:13 *841:I 0.000363261
20 *28:13 *843:A2 6.52531e-05
21 *28:13 *850:A2 5.45647e-06
22 *28:13 *855:I 0.00332802
23 *28:13 *29:5 1.63288e-05
24 *28:13 *53:16 0.000994806
25 *28:13 *123:10 0.000826319
26 *28:13 *257:12 0.000922098
27 *28:13 *265:10 0
28 *836:D *28:13 0.000324249
29 *884:EN *313:I 0.000186585
30 *884:EN *740:D 5.76373e-06
31 *27:21 *28:13 0.000151978
*RES
1 trim[6] *28:13 27.262 
2 *28:13 *313:I 6.552 
3 *28:13 *740:D 4.728 
*END

*D_NET *29 0.00598626
*CONN
*P trim[7] I
*I *763:D I *D gf180mcu_fd_sc_mcu7t5v0__latrnq_1
*I *315:I I *D gf180mcu_fd_sc_mcu7t5v0__antenna
*CAP
1 trim[7] 0.000108245
2 *763:D 0.000209841
3 *315:I 0.000315051
4 *29:5 0.000633137
5 *763:D *763:E 8.55327e-05
6 *763:D *836:E 8.55327e-05
7 *763:D *840:E 0.000123561
8 *763:D *30:29 2.69281e-06
9 *763:D *53:147 5.69258e-05
10 *29:5 *30:29 1.49824e-05
11 *301:I *315:I 0.000767903
12 *301:I *763:D 3.52802e-05
13 *322:I *315:I 0.000360031
14 *322:I *763:D 0.000140167
15 *323:I *315:I 0.000807848
16 *836:D *315:I 0.00183772
17 *863:D *763:D 3.44754e-05
18 *863:D *29:5 6.04444e-06
19 *10:15 *763:D 0.000149334
20 *26:13 *315:I 2.09451e-05
21 *27:21 *315:I 0.000142809
22 *28:13 *763:D 3.18755e-05
23 *28:13 *29:5 1.63288e-05
*RES
1 trim[7] *29:5 0.646 
2 *29:5 *315:I 24.764 
3 *29:5 *763:D 11.28 
*END

*D_NET *30 0.0115237
*CONN
*P trim[8] I
*I *786:D I *D gf180mcu_fd_sc_mcu7t5v0__latrnq_1
*I *317:I I *D gf180mcu_fd_sc_mcu7t5v0__antenna
*CAP
1 trim[8] 0.00289614
2 *786:D 4.6149e-05
3 *317:I 3.28034e-05
4 *30:29 0.00297509
5 *317:I *881:EN 0
6 *786:D *628:A1 0.000136499
7 *786:D *814:I 5.93437e-05
8 *30:29 *649:I 0.00025784
9 *30:29 *757:I 0.000438681
10 *30:29 *758:EN 0.000141897
11 *30:29 *761:EN 2.74886e-05
12 *30:29 *765:I 0.000419344
13 *30:29 *766:A2 5.97259e-05
14 *30:29 *773:I 0
15 *30:29 *786:E 6.39906e-05
16 *30:29 *800:A2 1.0115e-05
17 *30:29 *821:I 0
18 *30:29 *824:I 0
19 *30:29 *837:I 0
20 *30:29 *879:EN 0.00012362
21 *30:29 *880:EN 1.02578e-05
22 *30:29 *881:EN 0.00031512
23 *30:29 *888:I 2.30549e-05
24 *30:29 *31:17 1.01296e-05
25 *30:29 *53:82 0
26 *30:29 *53:231 0.000172961
27 *30:29 *101:14 0.00152235
28 *30:29 *101:34 0.000293587
29 *30:29 *197:10 8.56363e-05
30 *30:29 *265:10 0.000216514
31 *324:I *30:29 0.000126989
32 *593:I *30:29 0
33 *652:D *30:29 0.000270604
34 *763:D *30:29 2.69281e-06
35 *863:D *30:29 8.73277e-05
36 *875:A1 *30:29 0.000307983
37 *5:38 *30:29 0.000366193
38 *10:15 *30:29 8.59272e-06
39 *29:5 *30:29 1.49824e-05
*RES
1 trim[8] *30:29 29.998 
2 *30:29 *317:I 4.728 
3 *30:29 *786:D 14.184 
*END

*D_NET *31 0.00663767
*CONN
*P trim[9] I
*I *809:D I *D gf180mcu_fd_sc_mcu7t5v0__latrnq_1
*I *319:I I *D gf180mcu_fd_sc_mcu7t5v0__antenna
*CAP
1 trim[9] 0.000233707
2 *809:D 0.000223453
3 *319:I 0
4 *31:17 0.00045716
5 *809:D *608:I 2.25184e-05
6 *809:D *614:I 0
7 *809:D *813:E 2.05156e-05
8 *809:D *245:12 6.85937e-05
9 *31:17 *608:I 1.49066e-06
10 *323:I *31:17 0.00281588
11 *7:9 *31:17 7.68597e-06
12 *8:23 *31:17 3.00299e-05
13 *12:13 *31:17 0
14 *13:13 *31:17 0.00254474
15 *14:17 *31:17 6.33531e-06
16 *21:17 *809:D 0.000117057
17 *21:17 *31:17 7.83779e-05
18 *30:29 *31:17 1.01296e-05
*RES
1 trim[9] *31:17 21.366 
2 *31:17 *319:I 4.5 
3 *31:17 *809:D 6.4 
*END

*D_NET *32 0.000837181
*CONN
*I *825:I I *D gf180mcu_fd_sc_mcu7t5v0__clkinv_8
*I *824:ZN O *D gf180mcu_fd_sc_mcu7t5v0__clkinv_2
*CAP
1 *825:I 0.000213672
2 *824:ZN 0.000213672
3 *825:I *624:I 3.73627e-05
4 *825:I *821:I 0.000112454
5 *825:I *59:10 0.000113695
6 *19:13 *825:I 0.000146325
*RES
1 *824:ZN *825:I 10.9 
*END

*D_NET *33 0.000616391
*CONN
*I *827:I I *D gf180mcu_fd_sc_mcu7t5v0__clkinv_8
*I *826:ZN O *D gf180mcu_fd_sc_mcu7t5v0__clkinv_2
*CAP
1 *827:I 0.000110528
2 *826:ZN 0.000110528
3 *827:I *780:I 5.86759e-05
4 *827:I *826:I 1.2018e-05
5 clockp[1] *827:I 0.00032464
*RES
1 *826:ZN *827:I 10.216 
*END

*D_NET *34 0.00161658
*CONN
*I *598:I I *D gf180mcu_fd_sc_mcu7t5v0__invz_2
*I *596:Z O *D gf180mcu_fd_sc_mcu7t5v0__clkbuf_1
*CAP
1 *598:I 0.000171777
2 *596:Z 0.000171777
3 *598:I *598:ZN 0.000412161
4 *598:I *599:I 8.55242e-05
5 *598:I *600:I 2.3917e-05
6 *598:I *603:I 0
7 *598:I *57:17 0.000751428
*RES
1 *596:Z *598:I 11.432 
*END

*D_NET *35 0.00277122
*CONN
*I *598:ZN O *D gf180mcu_fd_sc_mcu7t5v0__invz_2
*I *601:I I *D gf180mcu_fd_sc_mcu7t5v0__clkinv_2
*I *600:ZN O *D gf180mcu_fd_sc_mcu7t5v0__invz_4
*CAP
1 *598:ZN 5.2508e-05
2 *601:I 0.000510419
3 *600:ZN 0.000228659
4 *35:8 0.000791586
5 *598:ZN *600:I 0.000300767
6 *598:ZN *603:I 7.54771e-06
7 *601:I *600:EN 7.26556e-05
8 *601:I *603:I 7.40118e-05
9 *601:I *604:I 4.33076e-05
10 *601:I *609:A2 6.31406e-05
11 *601:I *867:I 8.80064e-05
12 *601:I *45:23 3.78032e-05
13 *601:I *52:14 5.24558e-05
14 *35:8 *52:14 3.61885e-05
15 *598:I *598:ZN 0.000412161
16 *12:13 *601:I 0
17 *12:13 *35:8 0
*RES
1 *600:ZN *35:8 10.14 
2 *35:8 *601:I 12.496 
3 *35:8 *598:ZN 10.14 
*END

*D_NET *36 0.00290914
*CONN
*I *597:I I *D gf180mcu_fd_sc_mcu7t5v0__invz_2
*I *601:ZN O *D gf180mcu_fd_sc_mcu7t5v0__clkinv_2
*CAP
1 *597:I 0.000519667
2 *601:ZN 0.000519667
3 *597:I *603:I 0
4 *597:I *605:A1 0.000166186
5 *597:I *611:I 0.0001908
6 *597:I *766:A2 0.000197186
7 *597:I *772:I 0.00014967
8 *597:I *867:I 0.000353742
9 *597:I *44:15 0
10 *597:I *197:23 0.000412174
11 *597:I *205:16 8.4373e-05
12 *324:I *597:I 0.000315674
*RES
1 *601:ZN *597:I 23.472 
*END

*D_NET *37 0.00169145
*CONN
*I *801:I I *D gf180mcu_fd_sc_mcu7t5v0__clkbuf_2
*I *889:A1 I *D gf180mcu_fd_sc_mcu7t5v0__xor2_1
*I *804:ZN O *D gf180mcu_fd_sc_mcu7t5v0__invz_2
*I *595:I I *D gf180mcu_fd_sc_mcu7t5v0__clkbuf_2
*I *806:ZN O *D gf180mcu_fd_sc_mcu7t5v0__invz_8
*CAP
1 *801:I 0.000101193
2 *889:A1 0.000149877
3 *804:ZN 3.00396e-05
4 *595:I 0.000249297
5 *806:ZN 0.000279337
6 *37:30 0.00025107
7 *595:I *618:I 8.55623e-05
8 *595:I *57:17 0
9 *801:I *53:108 4.63109e-05
10 *804:ZN *886:E 0.000193942
11 *889:A1 *804:I 0.000209639
12 *889:A1 *886:E 9.60894e-06
13 *889:A1 *53:108 8.55723e-05
*RES
1 *806:ZN *595:I 10.672 
2 *806:ZN *804:ZN 9.532 
3 *806:ZN *37:30 4.5 
4 *37:30 *889:A1 6.4 
5 *37:30 *801:I 5.412 
*END

*D_NET *38 0.00239308
*CONN
*I *605:A1 I *D gf180mcu_fd_sc_mcu7t5v0__or2_2
*I *604:Z O *D gf180mcu_fd_sc_mcu7t5v0__clkbuf_1
*CAP
1 *605:A1 0.000790638
2 *604:Z 0.000790638
3 *605:A1 *603:I 0
4 *605:A1 *843:A1 1.81888e-05
5 *605:A1 *847:I 4.40123e-05
6 *605:A1 *855:EN 1.5015e-05
7 *605:A1 *867:I 0.000408754
8 *605:A1 *44:8 3.99791e-05
9 *605:A1 *44:15 9.55786e-05
10 *605:A1 *258:10 2.40935e-05
11 *597:I *605:A1 0.000166186
*RES
1 *604:Z *605:A1 15.156 
*END

*D_NET *39 0.000165527
*CONN
*I *609:A1 I *D gf180mcu_fd_sc_mcu7t5v0__or2_2
*I *608:Z O *D gf180mcu_fd_sc_mcu7t5v0__clkbuf_1
*CAP
1 *609:A1 5.83306e-05
2 *608:Z 5.83306e-05
3 *609:A1 *52:14 0
4 *12:13 *609:A1 4.88658e-05
*RES
1 *608:Z *609:A1 18.532 
*END

*D_NET *40 0.000360013
*CONN
*I *597:EN I *D gf180mcu_fd_sc_mcu7t5v0__invz_2
*I *605:Z O *D gf180mcu_fd_sc_mcu7t5v0__or2_2
*CAP
1 *597:EN 0.000148963
2 *605:Z 0.000148963
3 *597:EN *44:8 1.52768e-05
4 *597:EN *44:15 4.68103e-05
5 *12:13 *597:EN 0
*RES
1 *605:Z *597:EN 9.836 
*END

*D_NET *41 0.000577135
*CONN
*I *598:EN I *D gf180mcu_fd_sc_mcu7t5v0__invz_2
*I *609:Z O *D gf180mcu_fd_sc_mcu7t5v0__or2_2
*CAP
1 *598:EN 0.000154138
2 *609:Z 0.000154138
3 *598:EN *600:EN 0.000193933
4 *598:EN *603:I 0
5 *598:EN *604:I 6.31252e-05
6 *598:EN *45:23 1.18004e-05
*RES
1 *609:Z *598:EN 10.216 
*END

*D_NET *42 0.00725737
*CONN
*I *604:I I *D gf180mcu_fd_sc_mcu7t5v0__clkbuf_1
*I *603:Z O *D gf180mcu_fd_sc_mcu7t5v0__clkbuf_1
*CAP
1 *604:I 0.00120338
2 *603:Z 0.00120338
3 *604:I *599:EN 8.55242e-05
4 *604:I *600:EN 0.000317494
5 *604:I *603:I 0
6 *604:I *609:A2 0.000193942
7 *604:I *807:EN 8.81341e-06
8 *604:I *810:I 0
9 *604:I *817:I 2.23477e-05
10 *604:I *818:I 0.000759269
11 *604:I *841:I 0.000486177
12 *604:I *867:I 0.000783889
13 *604:I *873:A1 0.00208672
14 *604:I *45:23 0
15 *598:EN *604:I 6.31252e-05
16 *601:I *604:I 4.33076e-05
*RES
1 *603:Z *604:I 22.832 
*END

*D_NET *43 0.00140522
*CONN
*I *608:I I *D gf180mcu_fd_sc_mcu7t5v0__clkbuf_1
*I *607:Z O *D gf180mcu_fd_sc_mcu7t5v0__clkbuf_1
*CAP
1 *608:I 0.000222446
2 *607:Z 0.000222446
3 *608:I *614:I 2.57058e-06
4 *608:I *53:135 0.000805792
5 *608:I *53:141 2.57058e-06
6 *608:I *245:12 2.6126e-05
7 *809:D *608:I 2.25184e-05
8 *21:17 *608:I 9.92577e-05
9 *31:17 *608:I 1.49066e-06
*RES
1 *607:Z *608:I 11.584 
*END

*D_NET *44 0.00540977
*CONN
*I *605:A2 I *D gf180mcu_fd_sc_mcu7t5v0__or2_2
*I *603:I I *D gf180mcu_fd_sc_mcu7t5v0__clkbuf_1
*I *610:I I *D gf180mcu_fd_sc_mcu7t5v0__inv_1
*I *602:Q O *D gf180mcu_fd_sc_mcu7t5v0__latrnq_1
*CAP
1 *605:A2 3.39563e-05
2 *603:I 0.00109741
3 *610:I 0
4 *602:Q 0.000119058
5 *44:15 0.00130496
6 *44:8 0.000292649
7 *603:I *599:I 9.20566e-06
8 *603:I *600:I 7.98085e-05
9 *603:I *806:I 0.000173088
10 *603:I *810:I 0.000310356
11 *603:I *812:A1 0.000424397
12 *603:I *812:A2 9.50296e-06
13 *603:I *867:I 0
14 *603:I *45:23 0.000646838
15 *44:8 *197:23 5.76373e-06
16 *597:EN *44:8 1.52768e-05
17 *597:EN *44:15 4.68103e-05
18 *597:I *603:I 0
19 *597:I *44:15 0
20 *598:EN *603:I 0
21 *598:I *603:I 0
22 *598:ZN *603:I 7.54771e-06
23 *601:I *603:I 7.40118e-05
24 *604:I *603:I 0
25 *605:A1 *603:I 0
26 *605:A1 *44:8 3.99791e-05
27 *605:A1 *44:15 9.55786e-05
28 *15:27 *603:I 0
29 *16:7 *603:I 0.000623565
*RES
1 *602:Q *44:8 5.412 
2 *44:8 *610:I 4.5 
3 *44:8 *44:15 1.292 
4 *44:15 *603:I 22.772 
5 *44:15 *605:A2 4.728 
*END

*D_NET *45 0.00484324
*CONN
*I *607:I I *D gf180mcu_fd_sc_mcu7t5v0__clkbuf_1
*I *613:I I *D gf180mcu_fd_sc_mcu7t5v0__inv_1
*I *609:A2 I *D gf180mcu_fd_sc_mcu7t5v0__or2_2
*I *606:Q O *D gf180mcu_fd_sc_mcu7t5v0__latrnq_1
*CAP
1 *607:I 0.00011101
2 *613:I 0.000136492
3 *609:A2 0.000104635
4 *606:Q 0
5 *45:23 0.000666903
6 *45:4 0.000524036
7 *607:I *806:EN 2.6126e-05
8 *607:I *873:A1 0.000379274
9 *607:I *53:135 0.000164594
10 *609:A2 *600:EN 5.08754e-05
11 *609:A2 *873:A1 0.00020108
12 *609:A2 *52:14 0.000284188
13 *613:I *806:EN 0
14 *613:I *245:12 0
15 *45:23 *600:EN 0
16 *45:23 *806:EN 0
17 *45:23 *245:12 0
18 *323:I *613:I 0
19 *598:EN *45:23 1.18004e-05
20 *601:I *609:A2 6.31406e-05
21 *601:I *45:23 3.78032e-05
22 *603:I *45:23 0.000646838
23 *604:I *609:A2 0.000193942
24 *604:I *45:23 0
25 *12:13 *609:A2 0
26 *12:13 *613:I 0.000521664
27 *12:13 *45:23 0.000718842
*RES
1 *606:Q *45:4 4.5 
2 *45:4 *609:A2 15.476 
3 *45:4 *45:23 8.148 
4 *45:23 *613:I 10.292 
5 *45:23 *607:I 10.368 
*END

*D_NET *46 0.00238363
*CONN
*I *611:I I *D gf180mcu_fd_sc_mcu7t5v0__clkbuf_1
*I *610:ZN O *D gf180mcu_fd_sc_mcu7t5v0__inv_1
*CAP
1 *611:I 0.000347778
2 *610:ZN 0.000347778
3 *611:I *602:E 0.000292589
4 *611:I *763:E 0.000193942
5 *611:I *53:141 0.000386421
6 *611:I *53:143 7.50749e-05
7 *611:I *205:16 0.000313101
8 *324:I *611:I 0.00015573
9 *597:I *611:I 0.0001908
10 *7:9 *611:I 8.04139e-05
*RES
1 *610:ZN *611:I 22.712 
*END

*D_NET *47 0.000187021
*CONN
*I *614:I I *D gf180mcu_fd_sc_mcu7t5v0__clkbuf_1
*I *613:ZN O *D gf180mcu_fd_sc_mcu7t5v0__inv_1
*CAP
1 *614:I 7.72083e-05
2 *613:ZN 7.72083e-05
3 *608:I *614:I 2.57058e-06
4 *809:D *614:I 0
5 *21:17 *614:I 3.00343e-05
*RES
1 *613:ZN *614:I 9.532 
*END

*D_NET *48 0.000153083
*CONN
*I *612:I I *D gf180mcu_fd_sc_mcu7t5v0__clkbuf_1
*I *611:Z O *D gf180mcu_fd_sc_mcu7t5v0__clkbuf_1
*CAP
1 *612:I 7.65413e-05
2 *611:Z 7.65413e-05
3 *612:I *53:141 0
*RES
1 *611:Z *612:I 9.532 
*END

*D_NET *49 0.000201864
*CONN
*I *615:I I *D gf180mcu_fd_sc_mcu7t5v0__clkbuf_1
*I *614:Z O *D gf180mcu_fd_sc_mcu7t5v0__clkbuf_1
*CAP
1 *615:I 7.41207e-05
2 *614:Z 7.41207e-05
3 *615:I *873:A1 4.76155e-05
4 *615:I *53:135 6.00687e-06
*RES
1 *614:Z *615:I 9.532 
*END

*D_NET *50 0.000974858
*CONN
*I *599:EN I *D gf180mcu_fd_sc_mcu7t5v0__invz_8
*I *612:Z O *D gf180mcu_fd_sc_mcu7t5v0__clkbuf_1
*CAP
1 *599:EN 0.000140664
2 *612:Z 0.000140664
3 *599:EN *867:I 2.96621e-05
4 *599:EN *198:8 0
5 *599:EN *205:16 0
6 *604:I *599:EN 8.55242e-05
7 *9:9 *599:EN 0.000578344
*RES
1 *612:Z *599:EN 19.672 
*END

*D_NET *51 0.000927473
*CONN
*I *600:EN I *D gf180mcu_fd_sc_mcu7t5v0__invz_4
*I *615:Z O *D gf180mcu_fd_sc_mcu7t5v0__clkbuf_1
*CAP
1 *600:EN 0.000106088
2 *615:Z 0.000106088
3 *598:EN *600:EN 0.000193933
4 *601:I *600:EN 7.26556e-05
5 *604:I *600:EN 0.000317494
6 *609:A2 *600:EN 5.08754e-05
7 *12:13 *600:EN 8.0338e-05
8 *45:23 *600:EN 0
*RES
1 *615:Z *600:EN 19.824 
*END

*D_NET *52 0.00534417
*CONN
*I *606:E I *D gf180mcu_fd_sc_mcu7t5v0__latrnq_1
*I *602:E I *D gf180mcu_fd_sc_mcu7t5v0__latrnq_1
*I *616:Z O *D gf180mcu_fd_sc_mcu7t5v0__xor2_1
*CAP
1 *606:E 0
2 *602:E 0.000225609
3 *616:Z 0.000936082
4 *52:14 0.00116169
5 *602:E *53:141 0.000230849
6 *52:14 *618:I 0.000331986
7 *52:14 *770:A1 0.000134113
8 *52:14 *867:I 0.00051482
9 *52:14 *53:141 0.000147305
10 *52:14 *54:16 5.38183e-05
11 *52:14 *54:36 2.6126e-05
12 *302:I *602:E 0.000218124
13 *302:I *52:14 6.17803e-05
14 *601:I *52:14 5.24558e-05
15 *609:A1 *52:14 0
16 *609:A2 *52:14 0.000284188
17 *611:I *602:E 0.000292589
18 *767:D *602:E 0.000165994
19 *7:9 *602:E 8.04139e-05
20 *9:9 *52:14 0.000257086
21 *10:15 *602:E 4.02804e-05
22 *21:17 *52:14 9.26705e-05
23 *35:8 *52:14 3.61885e-05
*RES
1 *616:Z *52:14 21.48 
2 *52:14 *602:E 7.768 
3 *52:14 *606:E 4.5 
*END

*D_NET *53 0.0487855
*CONN
*I *671:RN I *D gf180mcu_fd_sc_mcu7t5v0__latrnq_1
*I *675:RN I *D gf180mcu_fd_sc_mcu7t5v0__latrnq_1
*I *648:RN I *D gf180mcu_fd_sc_mcu7t5v0__latrnq_1
*I *652:RN I *D gf180mcu_fd_sc_mcu7t5v0__latrnq_1
*I *790:RN I *D gf180mcu_fd_sc_mcu7t5v0__latrnq_1
*I *786:RN I *D gf180mcu_fd_sc_mcu7t5v0__latrnq_1
*I *629:RN I *D gf180mcu_fd_sc_mcu7t5v0__latrnq_1
*I *625:RN I *D gf180mcu_fd_sc_mcu7t5v0__latrnq_1
*I *813:RN I *D gf180mcu_fd_sc_mcu7t5v0__latrnq_1
*I *809:RN I *D gf180mcu_fd_sc_mcu7t5v0__latrnq_1
*I *606:RN I *D gf180mcu_fd_sc_mcu7t5v0__latrnq_1
*I *767:RN I *D gf180mcu_fd_sc_mcu7t5v0__latrnq_1
*I *602:RN I *D gf180mcu_fd_sc_mcu7t5v0__latrnq_1
*I *763:RN I *D gf180mcu_fd_sc_mcu7t5v0__latrnq_1
*I *840:RN I *D gf180mcu_fd_sc_mcu7t5v0__latrnq_1
*I *836:RN I *D gf180mcu_fd_sc_mcu7t5v0__latrnq_1
*I *863:RN I *D gf180mcu_fd_sc_mcu7t5v0__latrnq_1
*I *859:RN I *D gf180mcu_fd_sc_mcu7t5v0__latrnq_1
*I *887:RN I *D gf180mcu_fd_sc_mcu7t5v0__latrnq_1
*I *886:RN I *D gf180mcu_fd_sc_mcu7t5v0__latrnq_1
*I *883:I I *D gf180mcu_fd_sc_mcu7t5v0__dlyb_1
*I *717:RN I *D gf180mcu_fd_sc_mcu7t5v0__latrnq_1
*I *721:RN I *D gf180mcu_fd_sc_mcu7t5v0__latrnq_1
*I *744:RN I *D gf180mcu_fd_sc_mcu7t5v0__latrnq_1
*I *740:RN I *D gf180mcu_fd_sc_mcu7t5v0__latrnq_1
*I *698:RN I *D gf180mcu_fd_sc_mcu7t5v0__latrnq_1
*I *694:RN I *D gf180mcu_fd_sc_mcu7t5v0__latrnq_1
*I *593:ZN O *D gf180mcu_fd_sc_mcu7t5v0__clkinv_1
*CAP
1 *671:RN 2.65263e-05
2 *675:RN 0
3 *648:RN 0
4 *652:RN 0.000106564
5 *790:RN 5.18354e-05
6 *786:RN 0
7 *629:RN 0.000124733
8 *625:RN 0
9 *813:RN 1.53289e-05
10 *809:RN 0
11 *606:RN 0
12 *767:RN 0
13 *602:RN 0
14 *763:RN 0
15 *840:RN 0
16 *836:RN 0
17 *863:RN 0
18 *859:RN 0.00012428
19 *887:RN 2.73362e-05
20 *886:RN 0
21 *883:I 0
22 *717:RN 0.000330706
23 *721:RN 0
24 *744:RN 0.000162594
25 *740:RN 0
26 *698:RN 0.000130711
27 *694:RN 0.000287416
28 *593:ZN 0
29 *53:258 0.000199007
30 *53:254 0.000333283
31 *53:252 0.00037252
32 *53:231 0.000770015
33 *53:209 0.000189715
34 *53:200 8.03114e-05
35 *53:151 0.00022656
36 *53:149 0.00011325
37 *53:147 4.98911e-05
38 *53:145 5.70642e-05
39 *53:143 0.00011219
40 *53:141 0.000338049
41 *53:135 0.00053575
42 *53:129 0.000920236
43 *53:121 0.00102896
44 *53:108 0.00111916
45 *53:95 0.00102547
46 *53:89 0.00110316
47 *53:82 0.000207
48 *53:62 0.000520837
49 *53:48 0.000576071
50 *53:38 0.000761324
51 *53:16 0.00041509
52 *53:10 0.000826328
53 *53:4 0.000722624
54 *629:RN *629:E 8.18282e-05
55 *629:RN *634:I 1.53727e-05
56 *629:RN *873:A1 0.000228697
57 *629:RN *75:8 7.98438e-05
58 *652:RN *650:I 4.01529e-05
59 *652:RN *652:E 0.000246185
60 *652:RN *856:I 0.000526519
61 *652:RN *857:EN 0.000521664
62 *671:RN *685:A2 0.000452674
63 *671:RN *839:A1 0.000332487
64 *671:RN *853:I 2.65777e-05
65 *694:RN *708:A1 3.49942e-05
66 *694:RN *754:A1 0.000108213
67 *694:RN *777:A1 0.000493315
68 *694:RN *839:A1 0.000346476
69 *694:RN *143:16 3.00299e-05
70 *698:RN *731:A1 5.33383e-05
71 *717:RN *709:I 6.47993e-06
72 *717:RN *714:EN 1.24299e-05
73 *744:RN *744:E 0.000164594
74 *744:RN *754:A2 1.76898e-05
75 *744:RN *779:I 0.00131681
76 *744:RN *878:I 0
77 *790:RN *790:E 0.000298454
78 *790:RN *800:A2 0.000111509
79 *813:RN *811:I 0.000137785
80 *813:RN *819:I 0.00013063
81 *859:RN *841:I 8.46132e-05
82 *859:RN *843:A1 0.000484567
83 *859:RN *851:I 0.000370526
84 *859:RN *873:A2 3.31215e-05
85 *53:10 *616:A1 0.000410165
86 *53:10 *759:EN 0.000144931
87 *53:10 *759:I 1.95496e-05
88 *53:10 *760:I 5.99167e-05
89 *53:10 *761:I 0.000184378
90 *53:10 *762:I 0.000593906
91 *53:10 *777:A1 3.58941e-05
92 *53:10 *56:20 0
93 *53:10 *56:22 0.000422015
94 *53:10 *101:34 5.40519e-05
95 *53:10 *205:16 0
96 *53:16 *754:A1 0.000119906
97 *53:16 *777:A1 0.000789447
98 *53:38 *777:A1 2.69281e-06
99 *53:38 *56:20 1.79315e-05
100 *53:48 *779:I 9.26705e-05
101 *53:62 *731:A2 3.80391e-05
102 *53:62 *56:20 8.81325e-07
103 *53:82 *616:A1 0.000140167
104 *53:82 *756:I 8.34306e-05
105 *53:89 *756:I 4.58601e-06
106 *53:89 *800:A1 2.03665e-05
107 *53:95 *616:A1 0
108 *53:95 *823:A1 0.000324181
109 *53:95 *245:12 0
110 *53:108 *650:I 0
111 *53:108 *804:I 5.25778e-05
112 *53:108 *823:A1 4.13847e-05
113 *53:108 *823:A2 0.000219177
114 *53:108 *824:I 4.26636e-05
115 *53:108 *886:E 0
116 *53:108 *101:14 0
117 *53:121 *618:I 0
118 *53:121 *811:I 4.00221e-05
119 *53:121 *814:I 0.00192574
120 *53:121 *819:I 0
121 *53:121 *821:I 0.00278757
122 *53:121 *824:I 1.71121e-05
123 *53:121 *79:6 0.00013063
124 *53:121 *238:12 0.000260718
125 *53:135 *806:EN 0.000482193
126 *53:135 *813:E 9.48587e-05
127 *53:135 *873:A1 0.000176683
128 *53:135 *245:12 9.32538e-05
129 *53:141 *873:A1 0.000119271
130 *53:143 *763:E 0.000338864
131 *53:143 *873:A1 0.000132131
132 *53:145 *763:E 0.00028423
133 *53:145 *873:A1 0.00031512
134 *53:147 *763:E 0.000209093
135 *53:147 *836:E 5.4634e-05
136 *53:147 *840:E 0.000147313
137 *53:147 *873:A1 0.000552722
138 *53:149 *836:E 0.00029375
139 *53:149 *873:A1 0.00032464
140 *53:151 *836:E 0.000206711
141 *53:151 *841:I 6.63909e-05
142 *53:151 *873:A1 0.000490942
143 *53:209 *811:I 0.000348384
144 *53:209 *819:I 0.000431543
145 *53:209 *873:A1 0.000134564
146 *53:209 *75:8 0.000149579
147 *53:231 *790:E 0.000147305
148 *53:231 *800:A1 0.000460937
149 *53:231 *800:A2 0.000211303
150 *53:231 *814:I 8.73184e-05
151 *53:231 *816:A1 6.03906e-05
152 *53:231 *879:EN 0.000369754
153 *53:231 *880:EN 0.000161672
154 *53:231 *76:66 1.96827e-05
155 *53:231 *76:72 8.55327e-05
156 *53:231 *292:6 5.0983e-05
157 *53:252 *696:I 2.40654e-06
158 *53:252 *708:A1 7.45328e-07
159 *53:252 *754:A1 0.000246185
160 *53:252 *839:A1 9.39206e-05
161 *53:254 *675:E 5.3266e-05
162 *53:254 *696:I 2.44893e-05
163 *53:254 *708:A1 7.04581e-06
164 *53:258 *857:EN 0.00214145
165 *308:I *53:254 8.81341e-06
166 *308:I *53:258 0.00018371
167 *311:I *717:RN 8.7332e-05
168 *322:I *859:RN 0.000256194
169 *322:I *53:151 0.00048761
170 *593:I *53:82 8.55242e-05
171 *602:E *53:141 0.000230849
172 *607:I *53:135 0.000164594
173 *608:I *53:135 0.000805792
174 *608:I *53:141 2.57058e-06
175 *611:I *53:141 0.000386421
176 *611:I *53:143 7.50749e-05
177 *612:I *53:141 0
178 *615:I *53:135 6.00687e-06
179 *675:D *53:254 1.3758e-05
180 *694:D *694:RN 7.83779e-05
181 *763:D *53:147 5.69258e-05
182 *801:I *53:108 4.63109e-05
183 *887:D *53:108 3.83835e-06
184 *889:A1 *53:108 8.55723e-05
185 *5:17 *717:RN 0
186 *5:38 *53:82 1.1971e-05
187 *5:38 *53:89 6.63508e-06
188 *5:38 *53:231 1.66121e-06
189 *13:13 *652:RN 0.000514812
190 *13:13 *53:258 0.00198265
191 *14:17 *53:95 0
192 *15:27 *744:RN 0.001217
193 *15:27 *53:48 9.26705e-05
194 *15:27 *53:62 0
195 *19:13 *53:121 4.94368e-05
196 *21:17 *53:135 6.77492e-05
197 *21:17 *53:141 3.00299e-05
198 *21:17 *53:209 0
199 *22:9 *629:RN 9.17202e-06
200 *28:13 *694:RN 0.00089396
201 *28:13 *53:16 0.000994806
202 *30:29 *53:82 0
203 *30:29 *53:231 0.000172961
204 *52:14 *53:141 0.000147305
*RES
1 *593:ZN *53:4 4.5 
2 *53:4 *53:10 9.82 
3 *53:10 *53:16 7.388 
4 *53:16 *694:RN 8.072 
5 *53:16 *698:RN 14.184 
6 *53:10 *53:38 0.912 
7 *53:38 *53:48 15.78 
8 *53:48 *740:RN 4.5 
9 *53:48 *744:RN 8.832 
10 *53:38 *53:62 1.14 
11 *53:62 *721:RN 9 
12 *53:62 *717:RN 11.28 
13 *53:4 *53:82 1.292 
14 *53:82 *883:I 4.5 
15 *53:82 *53:89 0.38 
16 *53:89 *53:95 11.66 
17 *53:95 *886:RN 4.5 
18 *53:95 *53:108 5.016 
19 *53:108 *887:RN 4.728 
20 *53:108 *53:121 12.86 
21 *53:121 *53:129 16.768 
22 *53:129 *53:135 4.636 
23 *53:135 *53:141 2.812 
24 *53:141 *53:143 1.444 
25 *53:143 *53:145 0.836 
26 *53:145 *53:147 1.444 
27 *53:147 *53:149 0.836 
28 *53:149 *53:151 2.204 
29 *53:151 *859:RN 6.704 
30 *53:151 *863:RN 4.5 
31 *53:149 *836:RN 4.5 
32 *53:147 *840:RN 4.5 
33 *53:145 *763:RN 4.5 
34 *53:143 *602:RN 4.5 
35 *53:141 *767:RN 4.5 
36 *53:135 *606:RN 4.5 
37 *53:129 *809:RN 4.5 
38 *53:121 *53:200 4.5 
39 *53:200 *813:RN 4.88 
40 *53:200 *53:209 1.9 
41 *53:209 *625:RN 4.5 
42 *53:209 *629:RN 5.944 
43 *53:89 *53:231 16.372 
44 *53:231 *786:RN 4.5 
45 *53:231 *790:RN 5.336 
46 *694:RN *53:252 5.564 
47 *53:252 *53:254 1.444 
48 *53:254 *53:258 10.048 
49 *53:258 *652:RN 11.736 
50 *53:258 *648:RN 9 
51 *53:254 *675:RN 4.5 
52 *53:252 *671:RN 14.64 
*END

*D_NET *54 0.00725203
*CONN
*I *618:I I *D gf180mcu_fd_sc_mcu7t5v0__clkbuf_2
*I *594:I I *D gf180mcu_fd_sc_mcu7t5v0__clkbuf_2
*I *597:ZN O *D gf180mcu_fd_sc_mcu7t5v0__invz_2
*I *850:A1 I *D gf180mcu_fd_sc_mcu7t5v0__xor2_1
*I *599:ZN O *D gf180mcu_fd_sc_mcu7t5v0__invz_8
*CAP
1 *618:I 0.00109379
2 *594:I 0
3 *597:ZN 0
4 *850:A1 0.0003268
5 *599:ZN 0
6 *54:36 0.00121851
7 *54:16 0.000631474
8 *54:6 0.00042939
9 *618:I *623:EN 1.5015e-05
10 *618:I *804:I 1.65795e-06
11 *618:I *886:E 0.000583156
12 *618:I *887:E 6.63909e-05
13 *618:I *229:8 0
14 *850:A1 *766:A1 3.56356e-05
15 *850:A1 *771:I 2.6126e-05
16 *850:A1 *832:EN 0
17 *850:A1 *834:EN 1.5015e-05
18 *850:A1 *850:A2 3.42287e-06
19 *54:16 *769:I 0.000263845
20 *54:16 *770:A1 3.37485e-05
21 *54:16 *771:I 4.4243e-05
22 *54:16 *772:I 0.000135436
23 *54:16 *775:I 0.000555104
24 *54:36 *769:I 1.54542e-05
25 *54:36 *770:A1 4.84399e-05
26 *54:36 *776:I 0.000101621
27 *324:I *850:A1 1.49066e-06
28 *324:I *54:16 1.91917e-06
29 *327:I *618:I 0.000139799
30 *595:I *618:I 8.55623e-05
31 *887:D *618:I 8.41354e-05
32 *9:9 *618:I 1.87089e-05
33 *9:9 *54:16 0.000396912
34 *9:9 *54:36 0.000134469
35 *12:13 *618:I 0
36 *12:13 *850:A1 0.000183643
37 *12:13 *54:16 5.09739e-06
38 *23:15 *618:I 0.000144093
39 *52:14 *618:I 0.000331986
40 *52:14 *54:16 5.38183e-05
41 *52:14 *54:36 2.6126e-05
42 *53:121 *618:I 0
*RES
1 *599:ZN *54:6 9 
2 *54:6 *54:16 8.452 
3 *54:16 *850:A1 6.78 
4 *54:16 *597:ZN 4.5 
5 *54:6 *54:36 5.716 
6 *54:36 *594:I 4.5 
7 *54:36 *618:I 13.468 
*END

*D_NET *55 0.000489614
*CONN
*I *616:A2 I *D gf180mcu_fd_sc_mcu7t5v0__xor2_1
*I *594:Z O *D gf180mcu_fd_sc_mcu7t5v0__clkbuf_2
*CAP
1 *616:A2 4.86123e-05
2 *594:Z 4.86123e-05
3 *616:A2 *650:I 6.77492e-05
4 *9:9 *616:A2 0.00032464
*RES
1 *594:Z *616:A2 9.836 
*END

*D_NET *56 0.011703
*CONN
*I *779:I I *D gf180mcu_fd_sc_mcu7t5v0__clkbuf_2
*I *616:A1 I *D gf180mcu_fd_sc_mcu7t5v0__xor2_1
*I *758:ZN O *D gf180mcu_fd_sc_mcu7t5v0__invz_2
*I *755:I I *D gf180mcu_fd_sc_mcu7t5v0__clkbuf_2
*I *760:ZN O *D gf180mcu_fd_sc_mcu7t5v0__invz_8
*CAP
1 *779:I 0.000146515
2 *616:A1 0.000404901
3 *758:ZN 0
4 *755:I 0.000246271
5 *760:ZN 0.000387053
6 *56:22 0.000569596
7 *56:20 0.00140633
8 *56:14 0.00121167
9 *616:A1 *756:I 0.000244079
10 *616:A1 *776:I 0
11 *616:A1 *823:A1 1.99755e-05
12 *616:A1 *101:8 0.00015172
13 *616:A1 *101:14 0.00015172
14 *755:I *685:A1 0
15 *755:I *731:A1 0.000122088
16 *755:I *101:34 2.98535e-05
17 *779:I *744:E 0.00117188
18 *779:I *754:A1 3.82054e-05
19 *779:I *184:8 0.000382459
20 *56:14 *717:E 0
21 *56:14 *721:E 1.02578e-05
22 *56:14 *731:A1 0.000110692
23 *56:14 *731:A2 0.000214408
24 *56:14 *754:A1 0.000163179
25 *56:14 *184:8 3.1394e-06
26 *56:20 *759:I 0.000107398
27 *56:20 *800:A1 0
28 *56:20 *101:8 0
29 *56:22 *731:A1 0
30 *56:22 *756:I 0.000298083
31 *56:22 *758:I 0.000726001
32 *56:22 *759:EN 6.68223e-05
33 *56:22 *760:EN 3.73535e-05
34 *56:22 *761:I 1.76797e-05
35 *56:22 *837:I 0
36 *56:22 *101:34 0.000124227
37 *56:22 *207:8 2.22758e-05
38 *698:D *56:22 5.14116e-06
39 *721:D *779:I 7.48145e-05
40 *721:D *56:14 0.000191397
41 *744:RN *779:I 0.00131681
42 *5:27 *616:A1 4.71425e-05
43 *5:31 *616:A1 0.00017557
44 *14:17 *755:I 0
45 *14:17 *56:22 1.74287e-05
46 *15:27 *779:I 0.000176935
47 *15:27 *56:20 2.08286e-05
48 *27:21 *56:14 0
49 *28:13 *779:I 7.24161e-06
50 *53:10 *616:A1 0.000410165
51 *53:10 *56:20 0
52 *53:10 *56:22 0.000422015
53 *53:38 *56:20 1.79315e-05
54 *53:48 *779:I 9.26705e-05
55 *53:62 *56:20 8.81325e-07
56 *53:82 *616:A1 0.000140167
57 *53:95 *616:A1 0
*RES
1 *760:ZN *56:14 8.224 
2 *56:14 *56:20 12.572 
3 *56:20 *56:22 4.332 
4 *56:22 *755:I 6.324 
5 *56:22 *758:ZN 4.5 
6 *56:20 *616:A1 18.06 
7 *56:14 *779:I 9.44 
*END

*D_NET *57 0.00282001
*CONN
*I *596:I I *D gf180mcu_fd_sc_mcu7t5v0__clkbuf_1
*I *599:I I *D gf180mcu_fd_sc_mcu7t5v0__invz_8
*I *600:I I *D gf180mcu_fd_sc_mcu7t5v0__invz_4
*I *595:Z O *D gf180mcu_fd_sc_mcu7t5v0__clkbuf_2
*CAP
1 *596:I 0
2 *599:I 0.000161732
3 *600:I 0.000187283
4 *595:Z 0.000163328
5 *57:17 0.000371562
6 *57:6 0.00056044
7 *595:I *57:17 0
8 *598:I *599:I 8.55242e-05
9 *598:I *600:I 2.3917e-05
10 *598:I *57:17 0.000751428
11 *598:ZN *600:I 0.000300767
12 *603:I *599:I 9.20566e-06
13 *603:I *600:I 7.98085e-05
14 *12:13 *599:I 6.25143e-05
15 *12:13 *57:17 6.24979e-05
*RES
1 *595:Z *57:6 5.488 
2 *57:6 *600:I 6.324 
3 *57:6 *57:17 2.356 
4 *57:17 *599:I 5.64 
5 *57:17 *596:I 4.5 
*END

*D_NET *58 0.00114266
*CONN
*I *621:I I *D gf180mcu_fd_sc_mcu7t5v0__invz_2
*I *619:Z O *D gf180mcu_fd_sc_mcu7t5v0__clkbuf_1
*CAP
1 *621:I 0.000173702
2 *619:Z 0.000173702
3 *621:I *621:EN 4.58601e-06
4 *621:I *638:I 0.000321924
5 *23:15 *621:I 0.000468743
*RES
1 *619:Z *621:I 10.9 
*END

*D_NET *59 0.00333679
*CONN
*I *624:I I *D gf180mcu_fd_sc_mcu7t5v0__clkinv_2
*I *621:ZN O *D gf180mcu_fd_sc_mcu7t5v0__invz_2
*I *623:ZN O *D gf180mcu_fd_sc_mcu7t5v0__invz_4
*CAP
1 *624:I 0.00027249
2 *621:ZN 7.71395e-05
3 *623:ZN 8.89923e-05
4 *59:10 0.000438622
5 *621:ZN *631:I 0.000258673
6 *621:ZN *78:25 0.000884528
7 *624:I *821:I 8.58009e-05
8 *624:I *822:I 4.58601e-06
9 *59:10 *821:I 0.000291299
10 *59:10 *78:25 0.000238095
11 clockp[0] *624:I 0.000251967
12 *825:I *624:I 3.73627e-05
13 *825:I *59:10 0.000113695
14 *19:13 *621:ZN 3.35674e-05
15 *19:13 *624:I 0.000140167
16 *19:13 *59:10 0.000119807
*RES
1 *623:ZN *59:10 10.52 
2 *59:10 *621:ZN 11.204 
3 *59:10 *624:I 11.204 
*END

*D_NET *60 0.000431272
*CONN
*I *620:I I *D gf180mcu_fd_sc_mcu7t5v0__invz_2
*I *624:ZN O *D gf180mcu_fd_sc_mcu7t5v0__clkinv_2
*CAP
1 *620:I 8.83554e-07
2 *624:ZN 8.83554e-07
3 *620:I *635:I 0.000143649
4 *620:I *822:I 0.000285856
*RES
1 *624:ZN *620:I 18.684 
*END

*D_NET *61 0.0128011
*CONN
*I *628:A1 I *D gf180mcu_fd_sc_mcu7t5v0__or2_2
*I *627:Z O *D gf180mcu_fd_sc_mcu7t5v0__clkbuf_1
*CAP
1 *628:A1 0.00188674
2 *627:Z 0.00188674
3 *628:A1 *619:I 0.000877659
4 *628:A1 *620:EN 1.83918e-05
5 *628:A1 *628:A2 2.6126e-05
6 *628:A1 *630:I 0.0056672
7 *628:A1 *631:I 0
8 *628:A1 *632:A2 0
9 *628:A1 *634:I 5.87561e-06
10 *628:A1 *635:I 0.000262017
11 *628:A1 *637:I 0.000320871
12 *628:A1 *753:I 0.000609614
13 *628:A1 *797:I 0.000190862
14 *628:A1 *798:I 0.000109369
15 *628:A1 *814:I 0.000371381
16 *628:A1 *826:I 0
17 *628:A1 *68:10 0
18 *628:A1 *68:29 0.000431787
19 clockp[1] *628:A1 0
20 *786:D *628:A1 0.000136499
*RES
1 *627:Z *628:A1 39.888 
*END

*D_NET *62 0.00179378
*CONN
*I *632:A1 I *D gf180mcu_fd_sc_mcu7t5v0__or2_2
*I *631:Z O *D gf180mcu_fd_sc_mcu7t5v0__clkbuf_1
*CAP
1 *632:A1 0.000286894
2 *631:Z 0.000286894
3 *632:A1 *620:EN 7.59473e-06
4 *632:A1 *626:I 0.000419035
5 *632:A1 *628:A2 1.91917e-06
6 *632:A1 *631:I 0.000181447
7 *632:A1 *635:I 1.52768e-05
8 *632:A1 *807:EN 0
9 *632:A1 *67:23 0.000301127
10 *23:15 *632:A1 0.000293595
*RES
1 *631:Z *632:A1 21.192 
*END

*D_NET *63 0.000995033
*CONN
*I *620:EN I *D gf180mcu_fd_sc_mcu7t5v0__invz_2
*I *628:Z O *D gf180mcu_fd_sc_mcu7t5v0__or2_2
*CAP
1 *620:EN 0.00048223
2 *628:Z 0.00048223
3 *620:EN *635:I 4.58601e-06
4 clockp[0] *620:EN 0
5 *628:A1 *620:EN 1.83918e-05
6 *632:A1 *620:EN 7.59473e-06
*RES
1 *628:Z *620:EN 11.812 
*END

*D_NET *64 0.00120501
*CONN
*I *621:EN I *D gf180mcu_fd_sc_mcu7t5v0__invz_2
*I *632:Z O *D gf180mcu_fd_sc_mcu7t5v0__or2_2
*CAP
1 *621:EN 0.000169394
2 *632:Z 0.000169394
3 *621:EN *631:I 2.23783e-05
4 *621:EN *632:A2 4.23892e-05
5 *621:EN *638:I 0.000520701
6 *621:EN *78:25 0.000232859
7 *621:I *621:EN 4.58601e-06
8 *23:15 *621:EN 4.33077e-05
*RES
1 *632:Z *621:EN 20.128 
*END

*D_NET *65 0.000789103
*CONN
*I *627:I I *D gf180mcu_fd_sc_mcu7t5v0__clkbuf_1
*I *626:Z O *D gf180mcu_fd_sc_mcu7t5v0__clkbuf_1
*CAP
1 *627:I 0.000380623
2 *626:Z 0.000380623
3 *627:I *626:I 0
4 *627:I *634:I 1.19438e-05
5 *627:I *635:I 1.59139e-05
*RES
1 *626:Z *627:I 20.128 
*END

*D_NET *66 0.00870024
*CONN
*I *631:I I *D gf180mcu_fd_sc_mcu7t5v0__clkbuf_1
*I *630:Z O *D gf180mcu_fd_sc_mcu7t5v0__clkbuf_1
*CAP
1 *631:I 0.00143026
2 *630:Z 0.00143026
3 *631:I *628:A2 0
4 *631:I *634:I 0.00162844
5 *631:I *638:I 0.00066399
6 *631:I *639:A1 1.04712e-05
7 *631:I *780:I 0.000427113
8 *631:I *784:EN 0.000382331
9 *631:I *785:I 0.000158342
10 *631:I *797:I 0.000173961
11 *631:I *807:EN 1.49066e-06
12 *631:I *67:8 1.97747e-05
13 *631:I *68:10 0.000193933
14 *631:I *78:23 0.000132839
15 *631:I *78:25 7.40986e-05
16 *631:I *218:8 0.000100143
17 *631:I *218:20 0.000142185
18 *303:I *631:I 3.17618e-05
19 *304:I *631:I 6.36666e-05
20 *621:EN *631:I 2.23783e-05
21 *621:ZN *631:I 0.000258673
22 *628:A1 *631:I 0
23 *632:A1 *631:I 0.000181447
24 *790:D *631:I 0.000530811
25 *19:13 *631:I 0.000641859
*RES
1 *630:Z *631:I 36.24 
*END

*D_NET *67 0.0157981
*CONN
*I *626:I I *D gf180mcu_fd_sc_mcu7t5v0__clkbuf_1
*I *628:A2 I *D gf180mcu_fd_sc_mcu7t5v0__or2_2
*I *633:I I *D gf180mcu_fd_sc_mcu7t5v0__inv_1
*I *625:Q O *D gf180mcu_fd_sc_mcu7t5v0__latrnq_1
*CAP
1 *626:I 0.00106962
2 *628:A2 4.25815e-05
3 *633:I 0.00025748
4 *625:Q 6.86424e-05
5 *67:23 0.00116616
6 *67:8 0.000380073
7 *626:I *634:I 0.00669557
8 *626:I *635:I 0
9 *626:I *782:EN 0.000467288
10 *626:I *791:I 0
11 *626:I *798:I 0.00172921
12 *626:I *76:14 0.000263425
13 *633:I *634:I 0.000407788
14 *633:I *873:A1 0
15 *67:8 *807:EN 3.52649e-05
16 *67:8 *68:10 0.000193933
17 *67:23 *634:I 0.000536935
18 clockp[0] *626:I 1.40571e-05
19 *304:I *633:I 0.000870823
20 *304:I *67:8 9.88736e-06
21 *627:I *626:I 0
22 *628:A1 *628:A2 2.6126e-05
23 *631:I *628:A2 0
24 *631:I *67:8 1.97747e-05
25 *632:A1 *626:I 0.000419035
26 *632:A1 *628:A2 1.91917e-06
27 *632:A1 *67:23 0.000301127
28 *22:9 *633:I 1.32333e-05
29 *23:15 *626:I 0.000184283
30 *23:15 *633:I 0.000558109
31 *23:15 *67:23 6.57525e-05
*RES
1 *625:Q *67:8 9.684 
2 *67:8 *633:I 13.332 
3 *67:8 *67:23 1.444 
4 *67:23 *628:A2 9.228 
5 *67:23 *626:I 27.164 
*END

*D_NET *68 0.0141736
*CONN
*I *630:I I *D gf180mcu_fd_sc_mcu7t5v0__clkbuf_1
*I *632:A2 I *D gf180mcu_fd_sc_mcu7t5v0__or2_2
*I *636:I I *D gf180mcu_fd_sc_mcu7t5v0__inv_1
*I *629:Q O *D gf180mcu_fd_sc_mcu7t5v0__latrnq_1
*CAP
1 *630:I 0.000618952
2 *632:A2 0.000356797
3 *636:I 0.000317507
4 *629:Q 0.000343052
5 *68:29 0.00113025
6 *68:10 0.000815064
7 *630:I *797:I 0.000284343
8 *630:I *826:I 0.000211572
9 *630:I *78:23 0.00112959
10 *630:I *78:25 0.000697281
11 *632:A2 *638:I 0.000143734
12 *636:I *637:I 0.000240376
13 *636:I *802:I 1.72881e-05
14 *636:I *803:I 0.000532127
15 *636:I *805:ZN 1.73591e-05
16 *636:I *807:I 9.00225e-06
17 *636:I *816:A1 3.1938e-05
18 *636:I *818:I 9.12593e-05
19 *636:I *229:8 8.01724e-06
20 *68:10 *637:I 0
21 *68:10 *639:A1 4.06416e-05
22 *68:10 *802:I 7.41459e-05
23 *68:10 *807:EN 5.48351e-05
24 *68:10 *814:I 0
25 *68:10 *819:I 8.8425e-05
26 *68:10 *78:25 6.14532e-05
27 *68:29 *814:I 0
28 *68:29 *78:25 0.000152387
29 *621:EN *632:A2 4.23892e-05
30 *628:A1 *630:I 0.0056672
31 *628:A1 *632:A2 0
32 *628:A1 *68:10 0
33 *628:A1 *68:29 0.000431787
34 *631:I *68:10 0.000193933
35 *19:13 *636:I 0.000176947
36 *23:15 *632:A2 0
37 *67:8 *68:10 0.000193933
*RES
1 *629:Q *68:10 11.736 
2 *68:10 *636:I 21.116 
3 *68:10 *68:29 1.596 
4 *68:29 *632:A2 11.052 
5 *68:29 *630:I 24.048 
*END

*D_NET *69 0.0141682
*CONN
*I *634:I I *D gf180mcu_fd_sc_mcu7t5v0__clkbuf_1
*I *633:ZN O *D gf180mcu_fd_sc_mcu7t5v0__inv_1
*CAP
1 *634:I 0.00122674
2 *633:ZN 0.00122674
3 *634:I *635:I 3.38043e-05
4 *634:I *780:I 0.000857631
5 *634:I *797:I 0
6 *634:I *873:A1 0
7 *634:I *218:20 0.000311663
8 *303:I *634:I 0.000236822
9 *304:I *634:I 0.000868536
10 *626:I *634:I 0.00669557
11 *627:I *634:I 1.19438e-05
12 *628:A1 *634:I 5.87561e-06
13 *629:RN *634:I 1.53727e-05
14 *631:I *634:I 0.00162844
15 *633:I *634:I 0.000407788
16 *22:9 *634:I 0.000104379
17 *67:23 *634:I 0.000536935
*RES
1 *633:ZN *634:I 40.724 
*END

*D_NET *70 0.00201406
*CONN
*I *637:I I *D gf180mcu_fd_sc_mcu7t5v0__clkbuf_1
*I *636:ZN O *D gf180mcu_fd_sc_mcu7t5v0__inv_1
*CAP
1 *637:I 0.000363579
2 *636:ZN 0.000363579
3 *637:I *638:I 0
4 *637:I *802:I 1.91917e-06
5 *637:I *803:I 0.000694318
6 *637:I *805:I 2.79319e-05
7 *637:I *805:ZN 1.49066e-06
8 *628:A1 *637:I 0.000320871
9 *636:I *637:I 0.000240376
10 *68:10 *637:I 0
*RES
1 *636:ZN *637:I 12.648 
*END

*D_NET *71 0.00725875
*CONN
*I *635:I I *D gf180mcu_fd_sc_mcu7t5v0__clkbuf_1
*I *634:Z O *D gf180mcu_fd_sc_mcu7t5v0__clkbuf_1
*CAP
1 *635:I 0.00256923
2 *634:Z 0.00256923
3 *635:I *622:EN 0.00105427
4 *635:I *782:EN 0
5 *635:I *791:I 0.000274115
6 *635:I *798:I 0
7 *635:I *799:I 0
8 *635:I *822:I 0.000147941
9 *635:I *76:14 9.62967e-05
10 *635:I *76:27 7.24214e-05
11 clockp[0] *635:I 0
12 *620:EN *635:I 4.58601e-06
13 *620:I *635:I 0.000143649
14 *626:I *635:I 0
15 *627:I *635:I 1.59139e-05
16 *628:A1 *635:I 0.000262017
17 *632:A1 *635:I 1.52768e-05
18 *634:I *635:I 3.38043e-05
*RES
1 *634:Z *635:I 36.924 
*END

*D_NET *72 0.00245964
*CONN
*I *638:I I *D gf180mcu_fd_sc_mcu7t5v0__clkbuf_1
*I *637:Z O *D gf180mcu_fd_sc_mcu7t5v0__clkbuf_1
*CAP
1 *638:I 0.000308583
2 *637:Z 0.000308583
3 *638:I *805:I 2.79319e-05
4 *638:I *78:25 4.75643e-05
5 *621:EN *638:I 0.000520701
6 *621:I *638:I 0.000321924
7 *631:I *638:I 0.00066399
8 *632:A2 *638:I 0.000143734
9 *637:I *638:I 0
10 *23:15 *638:I 0.000116627
*RES
1 *637:Z *638:I 21.952 
*END

*D_NET *73 0.00281429
*CONN
*I *622:EN I *D gf180mcu_fd_sc_mcu7t5v0__invz_8
*I *635:Z O *D gf180mcu_fd_sc_mcu7t5v0__clkbuf_1
*CAP
1 *622:EN 0.000230889
2 *635:Z 0.000230889
3 *622:EN *622:I 0
4 *622:EN *76:14 0.000132099
5 *622:EN *76:27 0.00109876
6 clockp[0] *622:EN 0
7 *635:I *622:EN 0.00105427
8 *23:15 *622:EN 6.73834e-05
*RES
1 *635:Z *622:EN 21.952 
*END

*D_NET *74 0.000432997
*CONN
*I *623:EN I *D gf180mcu_fd_sc_mcu7t5v0__invz_4
*I *638:Z O *D gf180mcu_fd_sc_mcu7t5v0__clkbuf_1
*CAP
1 *623:EN 0.000141888
2 *638:Z 0.000141888
3 *623:EN *79:6 0
4 *618:I *623:EN 1.5015e-05
5 *23:15 *623:EN 0.000134206
*RES
1 *638:Z *623:EN 10.064 
*END

*D_NET *75 0.000890892
*CONN
*I *629:E I *D gf180mcu_fd_sc_mcu7t5v0__latrnq_1
*I *625:E I *D gf180mcu_fd_sc_mcu7t5v0__latrnq_1
*I *639:Z O *D gf180mcu_fd_sc_mcu7t5v0__xor2_1
*CAP
1 *629:E 4.60676e-05
2 *625:E 0
3 *639:Z 0.000166169
4 *75:8 0.000212236
5 *629:RN *629:E 8.18282e-05
6 *629:RN *75:8 7.98438e-05
7 *21:17 *75:8 2.76775e-05
8 *22:9 *629:E 0.00012749
9 *53:209 *75:8 0.000149579
*RES
1 *639:Z *75:8 6.02 
2 *75:8 *625:E 4.5 
3 *75:8 *629:E 5.032 
*END

*D_NET *76 0.0211379
*CONN
*I *877:I I *D gf180mcu_fd_sc_mcu7t5v0__clkbuf_1
*I *880:I I *D gf180mcu_fd_sc_mcu7t5v0__invz_8
*I *881:I I *D gf180mcu_fd_sc_mcu7t5v0__invz_4
*I *617:I I *D gf180mcu_fd_sc_mcu7t5v0__clkbuf_2
*I *873:A1 I *D gf180mcu_fd_sc_mcu7t5v0__xor2_1
*I *620:ZN O *D gf180mcu_fd_sc_mcu7t5v0__invz_2
*I *622:ZN O *D gf180mcu_fd_sc_mcu7t5v0__invz_8
*CAP
1 *877:I 7.4377e-05
2 *880:I 0.000306776
3 *881:I 3.28034e-05
4 *617:I 0
5 *873:A1 0.00175572
6 *620:ZN 0
7 *622:ZN 0.000997589
8 *76:72 0.000588024
9 *76:66 0.000848773
10 *76:27 0.00223035
11 *76:14 0.000946275
12 *873:A1 *639:A1 0.000307974
13 *873:A1 *639:A2 0.000360339
14 *873:A1 *806:EN 0.000379805
15 *873:A1 *807:EN 0
16 *873:A1 *811:I 0
17 *873:A1 *817:I 0.000103141
18 *873:A1 *818:I 0.000186009
19 *873:A1 *819:I 0.000640548
20 *873:A1 *820:I 0
21 *873:A1 *822:I 3.83835e-06
22 *873:A1 *841:I 0.000155235
23 *873:A1 *238:12 0
24 *877:I *814:I 7.56167e-05
25 *877:I *816:A1 7.26713e-06
26 *880:I *800:A1 0.000500766
27 *880:I *874:A1 2.30549e-05
28 *880:I *878:I 1.88052e-05
29 *880:I *878:ZN 3.87828e-05
30 *880:I *879:I 1.69174e-05
31 *880:I *879:ZN 3.87828e-05
32 *76:14 *778:I 9.35816e-05
33 *76:14 *821:I 0
34 *76:14 *822:I 0.000135628
35 *76:27 *639:A2 0.000145096
36 *76:27 *822:I 0.00203246
37 *76:66 *790:E 7.59646e-05
38 *76:66 *795:I 5.67242e-05
39 *76:66 *800:A2 0
40 *76:66 *879:I 8.55327e-05
41 *76:72 *800:A1 0.00013677
42 *76:72 *814:I 0.000116891
43 *76:72 *816:A1 1.35372e-05
44 *76:72 *879:I 2.64818e-05
45 clockp[0] *76:14 0.000445547
46 *604:I *873:A1 0.00208672
47 *607:I *873:A1 0.000379274
48 *609:A2 *873:A1 0.00020108
49 *615:I *873:A1 4.76155e-05
50 *622:EN *76:14 0.000132099
51 *622:EN *76:27 0.00109876
52 *626:I *76:14 0.000263425
53 *629:RN *873:A1 0.000228697
54 *633:I *873:A1 0
55 *634:I *873:A1 0
56 *635:I *76:14 9.62967e-05
57 *635:I *76:27 7.24214e-05
58 *14:17 *880:I 0.000147305
59 *23:15 *76:27 3.11649e-05
60 *53:135 *873:A1 0.000176683
61 *53:141 *873:A1 0.000119271
62 *53:143 *873:A1 0.000132131
63 *53:145 *873:A1 0.00031512
64 *53:147 *873:A1 0.000552722
65 *53:149 *873:A1 0.00032464
66 *53:151 *873:A1 0.000490942
67 *53:209 *873:A1 0.000134564
68 *53:231 *76:66 1.96827e-05
69 *53:231 *76:72 8.55327e-05
*RES
1 *622:ZN *76:14 18.288 
2 *76:14 *620:ZN 4.5 
3 *76:14 *76:27 15.232 
4 *76:27 *873:A1 25.4 
5 *76:27 *617:I 4.5 
6 *622:ZN *76:66 12.192 
7 *76:66 *76:72 6.476 
8 *76:72 *881:I 4.728 
9 *76:72 *880:I 7.768 
10 *76:66 *877:I 9.532 
*END

*D_NET *77 0.00178199
*CONN
*I *639:A2 I *D gf180mcu_fd_sc_mcu7t5v0__xor2_1
*I *617:Z O *D gf180mcu_fd_sc_mcu7t5v0__clkbuf_2
*CAP
1 *639:A2 0.000407099
2 *617:Z 0.000407099
3 *639:A2 *639:A1 0.000248576
4 *639:A2 *807:EN 0.000133754
5 *639:A2 *822:I 4.58601e-06
6 *873:A1 *639:A2 0.000360339
7 *23:15 *639:A2 7.54435e-05
8 *76:27 *639:A2 0.000145096
*RES
1 *617:Z *639:A2 21.8 
*END

*D_NET *78 0.0127317
*CONN
*I *778:I I *D gf180mcu_fd_sc_mcu7t5v0__clkbuf_2
*I *802:I I *D gf180mcu_fd_sc_mcu7t5v0__clkbuf_2
*I *639:A1 I *D gf180mcu_fd_sc_mcu7t5v0__xor2_1
*I *781:ZN O *D gf180mcu_fd_sc_mcu7t5v0__invz_2
*I *783:ZN O *D gf180mcu_fd_sc_mcu7t5v0__invz_8
*CAP
1 *778:I 0.0002932
2 *802:I 0.000310276
3 *639:A1 0.000203609
4 *781:ZN 0
5 *783:ZN 0.000166172
6 *78:25 0.00110521
7 *78:23 0.00152875
8 *78:8 0.000810393
9 *639:A1 *811:I 7.45328e-07
10 *639:A1 *819:I 0.000149015
11 *778:I *800:A2 0.000385609
12 *802:I *805:EN 0.000300828
13 *802:I *807:EN 0
14 *802:I *810:I 0.000273038
15 *802:I *818:I 0.000362056
16 *802:I *819:I 0.000147305
17 *78:8 *736:EN 0
18 *78:8 *752:I 0
19 *78:8 *227:20 0
20 *78:23 *752:I 0
21 *78:23 *781:I 9.44416e-05
22 *78:23 *797:I 0.00120225
23 *78:23 *218:8 0.000436129
24 *78:23 *227:20 0
25 *303:I *639:A1 0.000242228
26 *621:EN *78:25 0.000232859
27 *621:ZN *78:25 0.000884528
28 *630:I *78:23 0.00112959
29 *630:I *78:25 0.000697281
30 *631:I *639:A1 1.04712e-05
31 *631:I *78:23 0.000132839
32 *631:I *78:25 7.40986e-05
33 *636:I *802:I 1.72881e-05
34 *637:I *802:I 1.91917e-06
35 *638:I *78:25 4.75643e-05
36 *639:A2 *639:A1 0.000248576
37 *790:D *78:23 2.59502e-05
38 *790:D *78:25 0.000149685
39 *873:A1 *639:A1 0.000307974
40 *19:13 *78:25 9.94917e-05
41 *59:10 *78:25 0.000238095
42 *68:10 *639:A1 4.06416e-05
43 *68:10 *802:I 7.41459e-05
44 *68:10 *78:25 6.14532e-05
45 *68:29 *78:25 0.000152387
46 *76:14 *778:I 9.35816e-05
*RES
1 *783:ZN *78:8 5.412 
2 *78:8 *781:ZN 4.5 
3 *78:8 *78:23 12.708 
4 *78:23 *78:25 7.676 
5 *78:25 *639:A1 11.888 
6 *78:25 *802:I 12.268 
7 *78:23 *778:I 11.508 
*END

*D_NET *79 0.00307681
*CONN
*I *622:I I *D gf180mcu_fd_sc_mcu7t5v0__invz_8
*I *619:I I *D gf180mcu_fd_sc_mcu7t5v0__clkbuf_1
*I *623:I I *D gf180mcu_fd_sc_mcu7t5v0__invz_4
*I *618:Z O *D gf180mcu_fd_sc_mcu7t5v0__clkbuf_2
*CAP
1 *622:I 0.000326982
2 *619:I 0.000121102
3 *623:I 0
4 *618:Z 0.000193467
5 *79:6 0.000641551
6 *619:I *814:I 0.000165078
7 clockp[0] *622:I 0.000357852
8 *622:EN *622:I 0
9 *623:EN *79:6 0
10 *628:A1 *619:I 0.000877659
11 *19:13 *622:I 0.000183652
12 *19:13 *79:6 7.88344e-05
13 *23:15 *622:I 0
14 *53:121 *79:6 0.00013063
*RES
1 *618:Z *79:6 5.792 
2 *79:6 *623:I 4.5 
3 *79:6 *619:I 15.704 
4 *79:6 *622:I 6.932 
*END

*D_NET *80 0.00333321
*CONN
*I *644:I I *D gf180mcu_fd_sc_mcu7t5v0__invz_2
*I *642:Z O *D gf180mcu_fd_sc_mcu7t5v0__clkbuf_1
*CAP
1 *644:I 0.00022948
2 *642:Z 0.00022948
3 *644:I *642:I 0.00131198
4 *644:I *644:ZN 9.39206e-05
5 *644:I *647:I 1.62988e-05
6 *644:I *708:A1 4.87119e-05
7 *644:I *871:I 0.00131781
8 *644:I *102:20 8.55242e-05
*RES
1 *642:Z *644:I 22.56 
*END

*D_NET *81 0.00273803
*CONN
*I *644:ZN O *D gf180mcu_fd_sc_mcu7t5v0__invz_2
*I *647:I I *D gf180mcu_fd_sc_mcu7t5v0__clkinv_2
*I *646:ZN O *D gf180mcu_fd_sc_mcu7t5v0__invz_4
*CAP
1 *644:ZN 0.000100988
2 *647:I 0.00028065
3 *646:ZN 0.000105968
4 *81:10 0.000487606
5 *644:ZN *99:20 9.22982e-06
6 *647:I *856:EN 0.000137757
7 *647:I *868:I 0.000469241
8 *647:I *99:20 0.000279944
9 *647:I *102:20 0.00015447
10 *81:10 *857:EN 0.000120303
11 *81:10 *860:I 0.000481652
12 *644:I *644:ZN 9.39206e-05
13 *644:I *647:I 1.62988e-05
*RES
1 *646:ZN *81:10 14.792 
2 *81:10 *647:I 16.464 
3 *81:10 *644:ZN 5.184 
*END

*D_NET *82 0.00130593
*CONN
*I *643:I I *D gf180mcu_fd_sc_mcu7t5v0__invz_2
*I *647:ZN O *D gf180mcu_fd_sc_mcu7t5v0__clkinv_2
*CAP
1 *643:I 0.000353986
2 *647:ZN 0.000353986
3 *643:I *643:ZN 8.88887e-05
4 *643:I *645:EN 0.000319043
5 *643:I *99:20 0.000190028
*RES
1 *647:ZN *643:I 11.888 
*END

*D_NET *83 0.0100171
*CONN
*I *708:A1 I *D gf180mcu_fd_sc_mcu7t5v0__xor2_1
*I *641:I I *D gf180mcu_fd_sc_mcu7t5v0__clkbuf_2
*I *854:ZN O *D gf180mcu_fd_sc_mcu7t5v0__invz_2
*I *851:I I *D gf180mcu_fd_sc_mcu7t5v0__clkbuf_2
*I *856:ZN O *D gf180mcu_fd_sc_mcu7t5v0__invz_8
*CAP
1 *708:A1 0.00113939
2 *641:I 0.0020716
3 *854:ZN 8.61495e-05
4 *851:I 0.000700672
5 *856:ZN 0.000389451
6 *83:10 0.000854357
7 *83:8 0.00138919
8 *641:I *643:ZN 3.08902e-05
9 *641:I *645:EN 0.000322131
10 *641:I *651:A1 0.000610924
11 *641:I *854:I 3.91889e-05
12 *708:A1 *643:ZN 4.99616e-05
13 *708:A1 *645:I 0.000129185
14 *708:A1 *675:E 0.00011955
15 *708:A1 *676:I 0
16 *708:A1 *694:E 4.71416e-05
17 *708:A1 *839:A1 0.000286425
18 *708:A1 *102:20 5.16936e-05
19 *851:I *651:A1 0.000423125
20 *851:I *841:I 0.000174617
21 *851:I *842:I 0.000211477
22 *851:I *843:A1 0.000164594
23 *851:I *854:EN 1.2018e-05
24 *83:8 *845:I 0
25 *83:8 *846:I 0
26 *83:8 *854:I 7.83779e-05
27 *83:8 *858:I 9.88736e-06
28 *83:10 *651:A1 6.31406e-05
29 *308:I *708:A1 0
30 *322:I *851:I 3.25356e-05
31 *644:I *708:A1 4.87119e-05
32 *671:D *708:A1 1.19438e-05
33 *675:D *708:A1 1.3758e-05
34 *694:D *708:A1 2.96621e-05
35 *694:RN *708:A1 3.49942e-05
36 *859:RN *851:I 0.000370526
37 *26:13 *708:A1 1.20471e-05
38 *53:252 *708:A1 7.45328e-07
39 *53:254 *708:A1 7.04581e-06
*RES
1 *856:ZN *83:8 11.204 
2 *83:8 *83:10 0.532 
3 *83:10 *851:I 15.992 
4 *83:10 *854:ZN 9.532 
5 *83:8 *641:I 18.196 
6 *641:I *708:A1 15.916 
*END

*D_NET *84 0.00342775
*CONN
*I *651:A1 I *D gf180mcu_fd_sc_mcu7t5v0__or2_2
*I *650:Z O *D gf180mcu_fd_sc_mcu7t5v0__clkbuf_1
*CAP
1 *651:A1 0.000376855
2 *650:Z 0.000376855
3 *651:A1 *645:EN 0.000215472
4 *651:A1 *650:I 0.00135013
5 *651:A1 *854:I 1.12495e-05
6 *641:I *651:A1 0.000610924
7 *851:I *651:A1 0.000423125
8 *83:10 *651:A1 6.31406e-05
*RES
1 *650:Z *651:A1 25.904 
*END

*D_NET *85 0.000153083
*CONN
*I *655:A1 I *D gf180mcu_fd_sc_mcu7t5v0__or2_2
*I *654:Z O *D gf180mcu_fd_sc_mcu7t5v0__clkbuf_1
*CAP
1 *655:A1 7.65413e-05
2 *654:Z 7.65413e-05
*RES
1 *654:Z *655:A1 9.532 
*END

*D_NET *86 0.000953309
*CONN
*I *643:EN I *D gf180mcu_fd_sc_mcu7t5v0__invz_2
*I *651:Z O *D gf180mcu_fd_sc_mcu7t5v0__or2_2
*CAP
1 *643:EN 2.27273e-07
2 *651:Z 2.27273e-07
3 *643:EN *645:EN 0.000476427
4 *643:EN *854:I 0.000476427
*RES
1 *651:Z *643:EN 19.14 
*END

*D_NET *87 0.000437722
*CONN
*I *644:EN I *D gf180mcu_fd_sc_mcu7t5v0__invz_2
*I *655:Z O *D gf180mcu_fd_sc_mcu7t5v0__or2_2
*CAP
1 *644:EN 0.000202979
2 *655:Z 0.000202979
3 *644:EN *91:10 0
4 *644:EN *99:20 3.17634e-05
*RES
1 *655:Z *644:EN 10.064 
*END

*D_NET *88 0.0116935
*CONN
*I *650:I I *D gf180mcu_fd_sc_mcu7t5v0__clkbuf_1
*I *649:Z O *D gf180mcu_fd_sc_mcu7t5v0__clkbuf_1
*CAP
1 *650:I 0.00218508
2 *649:Z 0.00218508
3 *650:I *649:I 0.00220002
4 *650:I *651:A2 0.000239542
5 *650:I *652:E 4.69752e-05
6 *650:I *661:I 5.54829e-05
7 *650:I *766:A1 4.52262e-05
8 *650:I *770:A1 0.000203687
9 *650:I *770:A2 8.55327e-05
10 *650:I *832:EN 0
11 *650:I *832:ZN 0.000431535
12 *650:I *834:I 0.000161313
13 *650:I *854:I 0.00146465
14 *650:I *856:EN 4.27813e-05
15 *650:I *856:I 8.20959e-05
16 *650:I *101:14 0
17 *650:I *267:8 0.000372803
18 *650:I *271:28 0.000336305
19 *321:I *650:I 5.51024e-05
20 *616:A2 *650:I 6.77492e-05
21 *651:A1 *650:I 0.00135013
22 *652:D *650:I 0
23 *652:RN *650:I 4.01529e-05
24 *9:9 *650:I 4.2269e-05
25 *53:108 *650:I 0
*RES
1 *649:Z *650:I 41.484 
*END

*D_NET *89 0.000193969
*CONN
*I *654:I I *D gf180mcu_fd_sc_mcu7t5v0__clkbuf_1
*I *653:Z O *D gf180mcu_fd_sc_mcu7t5v0__clkbuf_1
*CAP
1 *654:I 6.55712e-05
2 *653:Z 6.55712e-05
3 *654:I *651:A2 5.55846e-05
4 *305:I *654:I 7.24161e-06
*RES
1 *653:Z *654:I 9.532 
*END

*D_NET *90 0.0111355
*CONN
*I *649:I I *D gf180mcu_fd_sc_mcu7t5v0__clkbuf_1
*I *651:A2 I *D gf180mcu_fd_sc_mcu7t5v0__or2_2
*I *656:I I *D gf180mcu_fd_sc_mcu7t5v0__inv_1
*I *648:Q O *D gf180mcu_fd_sc_mcu7t5v0__latrnq_1
*CAP
1 *649:I 0.00134776
2 *651:A2 0.000450818
3 *656:I 0.00041594
4 *648:Q 6.58427e-05
5 *90:27 0.00182337
6 *90:8 0.000506572
7 *649:I *758:EN 4.41408e-05
8 *649:I *761:EN 0.000199496
9 *649:I *832:I 0.000149116
10 *649:I *832:ZN 0.000431535
11 *649:I *91:10 8.32046e-06
12 *649:I *101:14 0.000147305
13 *651:A2 *856:EN 5.97012e-05
14 *656:I *833:EN 0.000249042
15 *656:I *834:EN 4.27211e-05
16 *656:I *846:I 0.000529378
17 *656:I *856:I 0
18 *656:I *860:I 0.000142809
19 *90:8 *660:I 2.1594e-05
20 *90:8 *833:EN 0.000178072
21 *90:27 *860:I 0.000655318
22 *305:I *649:I 2.44183e-06
23 *305:I *651:A2 9.11181e-05
24 *648:D *649:I 1.47993e-05
25 *650:I *649:I 0.00220002
26 *650:I *651:A2 0.000239542
27 *654:I *651:A2 5.55846e-05
28 *24:15 *656:I 0.000135941
29 *24:15 *90:27 0.000669349
30 *30:29 *649:I 0.00025784
*RES
1 *648:Q *90:8 9.532 
2 *90:8 *656:I 12.496 
3 *90:8 *90:27 6.248 
4 *90:27 *651:A2 7.464 
5 *90:27 *649:I 17.04 
*END

*D_NET *91 0.00263542
*CONN
*I *659:I I *D gf180mcu_fd_sc_mcu7t5v0__inv_1
*I *655:A2 I *D gf180mcu_fd_sc_mcu7t5v0__or2_2
*I *653:I I *D gf180mcu_fd_sc_mcu7t5v0__clkbuf_1
*I *652:Q O *D gf180mcu_fd_sc_mcu7t5v0__latrnq_1
*CAP
1 *659:I 7.65413e-05
2 *655:A2 6.91048e-06
3 *653:I 2.74601e-05
4 *652:Q 0.000417021
5 *91:10 0.00037485
6 *653:I *860:I 0.000213178
7 *653:I *871:I 0.000458149
8 *655:A2 *860:I 0.000200343
9 *655:A2 *871:I 0.000381142
10 *91:10 *98:10 0
11 *305:I *91:10 0.000241525
12 *644:EN *91:10 0
13 *648:D *91:10 0.000229983
14 *649:I *91:10 8.32046e-06
*RES
1 *652:Q *91:10 11.128 
2 *91:10 *653:I 10.14 
3 *91:10 *655:A2 9.988 
4 *652:Q *659:I 9.532 
*END

*D_NET *92 0.000153083
*CONN
*I *657:I I *D gf180mcu_fd_sc_mcu7t5v0__clkbuf_1
*I *656:ZN O *D gf180mcu_fd_sc_mcu7t5v0__inv_1
*CAP
1 *657:I 7.65413e-05
2 *656:ZN 7.65413e-05
*RES
1 *656:ZN *657:I 9.532 
*END

*D_NET *93 0.00279641
*CONN
*I *660:I I *D gf180mcu_fd_sc_mcu7t5v0__clkbuf_1
*I *659:ZN O *D gf180mcu_fd_sc_mcu7t5v0__inv_1
*CAP
1 *660:I 0.000325967
2 *659:ZN 0.000325967
3 *660:I *652:E 0.000219729
4 *660:I *833:EN 6.77157e-05
5 *660:I *856:I 0.000679088
6 *660:I *864:I 2.76633e-05
7 *660:I *98:10 7.87465e-05
8 *25:17 *660:I 0.00104994
9 *90:8 *660:I 2.1594e-05
*RES
1 *659:ZN *660:I 22.56 
*END

*D_NET *94 0.000153083
*CONN
*I *658:I I *D gf180mcu_fd_sc_mcu7t5v0__clkbuf_1
*I *657:Z O *D gf180mcu_fd_sc_mcu7t5v0__clkbuf_1
*CAP
1 *658:I 7.65413e-05
2 *657:Z 7.65413e-05
*RES
1 *657:Z *658:I 9.532 
*END

*D_NET *95 0.00199077
*CONN
*I *661:I I *D gf180mcu_fd_sc_mcu7t5v0__clkbuf_1
*I *660:Z O *D gf180mcu_fd_sc_mcu7t5v0__clkbuf_1
*CAP
1 *661:I 7.32037e-05
2 *660:Z 7.32037e-05
3 *661:I *856:I 0.00025334
4 *661:I *858:I 0.000768915
5 *661:I *279:16 0.000766628
6 *650:I *661:I 5.54829e-05
*RES
1 *660:Z *661:I 20.584 
*END

*D_NET *96 0.00238629
*CONN
*I *645:EN I *D gf180mcu_fd_sc_mcu7t5v0__invz_8
*I *658:Z O *D gf180mcu_fd_sc_mcu7t5v0__clkbuf_1
*CAP
1 *645:EN 0.000278378
2 *658:Z 0.000278378
3 *645:EN *643:ZN 2.40654e-06
4 *645:EN *854:I 0.000494058
5 *641:I *645:EN 0.000322131
6 *643:EN *645:EN 0.000476427
7 *643:I *645:EN 0.000319043
8 *651:A1 *645:EN 0.000215472
*RES
1 *658:Z *645:EN 22.864 
*END

*D_NET *97 0.00128976
*CONN
*I *646:EN I *D gf180mcu_fd_sc_mcu7t5v0__invz_4
*I *661:Z O *D gf180mcu_fd_sc_mcu7t5v0__clkbuf_1
*CAP
1 *646:EN 0.000175609
2 *661:Z 0.000175609
3 *646:EN *858:I 0.000328031
4 *646:EN *871:I 0.000547606
5 *646:EN *99:20 4.90321e-05
6 *305:I *646:EN 1.38735e-05
*RES
1 *661:Z *646:EN 20.508 
*END

*D_NET *98 0.00317141
*CONN
*I *648:E I *D gf180mcu_fd_sc_mcu7t5v0__latrnq_1
*I *652:E I *D gf180mcu_fd_sc_mcu7t5v0__latrnq_1
*I *662:Z O *D gf180mcu_fd_sc_mcu7t5v0__xor2_1
*CAP
1 *648:E 0
2 *652:E 0.000135811
3 *662:Z 0.00026508
4 *98:10 0.000400891
5 *652:E *864:I 0.000693949
6 *98:10 *685:A1 7.3827e-05
7 *98:10 *864:I 0.000508189
8 *98:10 *99:20 1.43775e-05
9 *307:I *98:10 0.00040534
10 *650:I *652:E 4.69752e-05
11 *652:RN *652:E 0.000246185
12 *660:I *652:E 0.000219729
13 *660:I *98:10 7.87465e-05
14 *671:D *98:10 2.59409e-05
15 *25:17 *98:10 5.63729e-05
16 *91:10 *98:10 0
*RES
1 *662:Z *98:10 12.04 
2 *98:10 *652:E 11.432 
3 *98:10 *648:E 9 
*END

*D_NET *99 0.0097273
*CONN
*I *664:I I *D gf180mcu_fd_sc_mcu7t5v0__clkbuf_2
*I *643:ZN O *D gf180mcu_fd_sc_mcu7t5v0__invz_2
*I *731:A1 I *D gf180mcu_fd_sc_mcu7t5v0__xor2_1
*I *640:I I *D gf180mcu_fd_sc_mcu7t5v0__clkbuf_2
*I *645:ZN O *D gf180mcu_fd_sc_mcu7t5v0__invz_8
*CAP
1 *664:I 0.000112919
2 *643:ZN 0.000280113
3 *731:A1 0.000768434
4 *640:I 0
5 *645:ZN 0.000301294
6 *99:20 0.00195797
7 *99:10 0.00165802
8 *664:I *672:I 1.83267e-05
9 *664:I *113:10 7.41459e-05
10 *731:A1 *701:A1 0
11 *731:A1 *754:A1 0.000981935
12 *731:A1 *837:I 0.000304112
13 *731:A1 *143:16 6.48283e-06
14 *99:10 *680:I 0
15 *99:10 *856:EN 0.00101928
16 *99:10 *868:I 0.000483061
17 *99:20 *662:A1 5.71282e-05
18 *99:20 *662:A2 6.58108e-05
19 *99:20 *671:E 0
20 *99:20 *685:A1 0.000143499
21 *99:20 *694:E 0
22 *99:20 *698:E 0
23 *99:20 *837:I 2.40654e-06
24 *99:20 *856:EN 0.000240191
25 *99:20 *868:I 2.20002e-05
26 *99:20 *101:34 0
27 *641:I *643:ZN 3.08902e-05
28 *643:I *643:ZN 8.88887e-05
29 *643:I *99:20 0.000190028
30 *644:EN *99:20 3.17634e-05
31 *644:ZN *99:20 9.22982e-06
32 *645:EN *643:ZN 2.40654e-06
33 *646:EN *99:20 4.90321e-05
34 *647:I *99:20 0.000279944
35 *698:D *731:A1 0.000182742
36 *698:RN *731:A1 5.33383e-05
37 *708:A1 *643:ZN 4.99616e-05
38 *755:I *731:A1 0.000122088
39 *26:13 *99:20 1.47882e-05
40 *56:14 *731:A1 0.000110692
41 *56:22 *731:A1 0
42 *98:10 *99:20 1.43775e-05
*RES
1 *645:ZN *99:10 12.192 
2 *99:10 *99:20 12.252 
3 *99:20 *640:I 4.5 
4 *99:20 *731:A1 19.732 
5 *99:10 *643:ZN 10.824 
6 *645:ZN *664:I 9.76 
*END

*D_NET *100 0.00104626
*CONN
*I *662:A2 I *D gf180mcu_fd_sc_mcu7t5v0__xor2_1
*I *640:Z O *D gf180mcu_fd_sc_mcu7t5v0__clkbuf_2
*CAP
1 *662:A2 0.000211986
2 *640:Z 0.000211986
3 *662:A2 *685:A1 0.000367372
4 *307:I *662:A2 0.000189107
5 *99:20 *662:A2 6.58108e-05
*RES
1 *640:Z *662:A2 11.052 
*END

*D_NET *101 0.00960811
*CONN
*I *662:A1 I *D gf180mcu_fd_sc_mcu7t5v0__xor2_1
*I *829:I I *D gf180mcu_fd_sc_mcu7t5v0__clkbuf_2
*I *876:I I *D gf180mcu_fd_sc_mcu7t5v0__clkbuf_2
*I *824:I I *D gf180mcu_fd_sc_mcu7t5v0__clkinv_2
*I *874:Z O *D gf180mcu_fd_sc_mcu7t5v0__and2_2
*CAP
1 *662:A1 0.000106003
2 *829:I 5.47372e-05
3 *876:I 0
4 *824:I 0.000402338
5 *874:Z 0.000154451
6 *101:34 0.00109372
7 *101:14 0.000862005
8 *101:8 0.0015471
9 *662:A1 *685:A1 0.000137776
10 *662:A1 *123:10 2.59502e-05
11 *824:I *879:EN 1.43468e-05
12 *824:I *888:I 4.2224e-05
13 *829:I *123:10 0.000195532
14 *101:8 *800:A1 1.5961e-05
15 *101:14 *823:A1 0.000221741
16 *101:14 *823:A2 5.48351e-05
17 *101:34 *757:I 2.25184e-05
18 *101:34 *760:EN 2.22657e-05
19 *101:34 *761:I 0.000328481
20 *101:34 *762:I 0.000307974
21 *101:34 *832:I 0
22 *101:34 *207:8 3.73627e-05
23 *307:I *101:34 0.000268053
24 *616:A1 *101:8 0.00015172
25 *616:A1 *101:14 0.00015172
26 *649:I *101:14 0.000147305
27 *650:I *101:14 0
28 *755:I *101:34 2.98535e-05
29 *5:27 *101:8 3.08875e-05
30 *19:13 *824:I 2.9378e-06
31 *27:21 *662:A1 0.000410371
32 *27:21 *829:I 0.000603474
33 *28:13 *662:A1 5.33384e-05
34 *30:29 *824:I 0
35 *30:29 *101:14 0.00152235
36 *30:29 *101:34 0.000293587
37 *53:10 *101:34 5.40519e-05
38 *53:108 *824:I 4.26636e-05
39 *53:108 *101:14 0
40 *53:121 *824:I 1.71121e-05
41 *56:20 *101:8 0
42 *56:22 *101:34 0.000124227
43 *99:20 *662:A1 5.71282e-05
44 *99:20 *101:34 0
*RES
1 *874:Z *101:8 10.292 
2 *101:8 *101:14 9.972 
3 *101:14 *824:I 7.084 
4 *101:14 *876:I 4.5 
5 *101:8 *101:34 16.98 
6 *101:34 *829:I 10.444 
7 *101:34 *662:A1 10.52 
*END

*D_NET *102 0.00417074
*CONN
*I *646:I I *D gf180mcu_fd_sc_mcu7t5v0__invz_4
*I *642:I I *D gf180mcu_fd_sc_mcu7t5v0__clkbuf_1
*I *645:I I *D gf180mcu_fd_sc_mcu7t5v0__invz_8
*I *641:Z O *D gf180mcu_fd_sc_mcu7t5v0__clkbuf_2
*CAP
1 *646:I 0
2 *642:I 5.72026e-05
3 *645:I 0.000334847
4 *641:Z 0.000197091
5 *102:20 0.000194958
6 *642:I *860:I 0.00154556
7 *642:I *871:I 0.000108229
8 *644:I *642:I 0.00131198
9 *644:I *102:20 8.55242e-05
10 *647:I *102:20 0.00015447
11 *708:A1 *645:I 0.000129185
12 *708:A1 *102:20 5.16936e-05
*RES
1 *641:Z *645:I 10.216 
2 *645:I *102:20 5.64 
3 *102:20 *642:I 17.376 
4 *102:20 *646:I 4.5 
*END

*D_NET *103 0.00136798
*CONN
*I *667:I I *D gf180mcu_fd_sc_mcu7t5v0__invz_2
*I *665:Z O *D gf180mcu_fd_sc_mcu7t5v0__clkbuf_1
*CAP
1 *667:I 0.000640924
2 *665:Z 0.000640924
3 *667:I *677:I 3.2974e-05
4 *667:I *678:A1 2.29652e-05
5 *667:I *684:I 8.81341e-06
6 *667:I *856:EN 5.76373e-06
7 *667:I *271:28 1.56113e-05
*RES
1 *665:Z *667:I 12.8 
*END

*D_NET *104 0.00248352
*CONN
*I *670:I I *D gf180mcu_fd_sc_mcu7t5v0__clkinv_2
*I *667:ZN O *D gf180mcu_fd_sc_mcu7t5v0__invz_2
*I *669:ZN O *D gf180mcu_fd_sc_mcu7t5v0__invz_4
*CAP
1 *670:I 0.000173026
2 *667:ZN 0.000120481
3 *669:ZN 9.30575e-05
4 *104:10 0.000386564
5 *667:ZN *669:EN 0
6 *670:I *665:I 7.83779e-05
7 *670:I *669:EN 8.47063e-05
8 *670:I *858:I 3.06264e-05
9 *670:I *868:I 4.52104e-05
10 *670:I *871:I 0.000702363
11 *104:10 *668:EN 1.52691e-05
12 *104:10 *858:I 0.000181173
13 *104:10 *871:I 0.000572666
*RES
1 *669:ZN *104:10 10.672 
2 *104:10 *667:ZN 9.532 
3 *104:10 *670:I 11.128 
*END

*D_NET *105 0.00187736
*CONN
*I *666:I I *D gf180mcu_fd_sc_mcu7t5v0__invz_2
*I *670:ZN O *D gf180mcu_fd_sc_mcu7t5v0__clkinv_2
*CAP
1 *666:I 0.000246708
2 *670:ZN 0.000246708
3 *666:I *668:I 0
4 *666:I *673:I 0.000485016
5 *666:I *857:EN 0.0007784
6 *666:I *864:I 0.00012053
*RES
1 *670:ZN *666:I 20.964 
*END

*D_NET *106 0.00251745
*CONN
*I *674:A1 I *D gf180mcu_fd_sc_mcu7t5v0__or2_2
*I *673:Z O *D gf180mcu_fd_sc_mcu7t5v0__clkbuf_1
*CAP
1 *674:A1 0.000644612
2 *673:Z 0.000644612
3 *674:A1 *666:ZN 0
4 *674:A1 *687:I 0
5 *674:A1 *691:I 0
6 *674:A1 *692:I 0
7 *674:A1 *702:I 0
8 *674:A1 *704:I 2.6126e-05
9 *674:A1 *855:I 7.45328e-07
10 *674:A1 *121:21 0
11 *674:A1 *145:8 1.91917e-06
12 *674:A1 *272:20 0.00119944
*RES
1 *673:Z *674:A1 23.092 
*END

*D_NET *107 0.00294971
*CONN
*I *678:A1 I *D gf180mcu_fd_sc_mcu7t5v0__or2_2
*I *677:Z O *D gf180mcu_fd_sc_mcu7t5v0__clkbuf_1
*CAP
1 *678:A1 0.000432826
2 *677:Z 0.000432826
3 *678:A1 *665:I 3.83835e-06
4 *678:A1 *667:EN 5.76373e-06
5 *678:A1 *668:EN 2.293e-05
6 *678:A1 *677:I 7.3429e-05
7 *678:A1 *678:A2 2.98131e-06
8 *678:A1 *854:I 0.00118776
9 *678:A1 *856:EN 0.000120249
10 *678:A1 *271:28 0.000644146
11 *667:I *678:A1 2.29652e-05
*RES
1 *677:Z *678:A1 22.56 
*END

*D_NET *108 0.0014907
*CONN
*I *666:EN I *D gf180mcu_fd_sc_mcu7t5v0__invz_2
*I *674:Z O *D gf180mcu_fd_sc_mcu7t5v0__or2_2
*CAP
1 *666:EN 0.000228409
2 *674:Z 0.000228409
3 *666:EN *668:EN 0.000439298
4 *666:EN *674:A2 0.000594586
5 *666:EN *692:EN 0
6 *666:EN *697:A1 0
*RES
1 *674:Z *666:EN 11.508 
*END

*D_NET *109 0.00078077
*CONN
*I *667:EN I *D gf180mcu_fd_sc_mcu7t5v0__invz_2
*I *678:Z O *D gf180mcu_fd_sc_mcu7t5v0__or2_2
*CAP
1 *667:EN 0.000274546
2 *678:Z 0.000274546
3 *667:EN *668:EN 0.000116925
4 *667:EN *672:I 1.02578e-05
5 *667:EN *678:A2 9.79306e-05
6 *667:EN *113:10 8.01325e-07
7 *678:A1 *667:EN 5.76373e-06
*RES
1 *678:Z *667:EN 10.976 
*END

*D_NET *110 0.00390784
*CONN
*I *673:I I *D gf180mcu_fd_sc_mcu7t5v0__clkbuf_1
*I *672:Z O *D gf180mcu_fd_sc_mcu7t5v0__clkbuf_1
*CAP
1 *673:I 0.00021775
2 *672:Z 0.00021775
3 *673:I *668:EN 0.00068957
4 *673:I *672:I 0.000417798
5 *673:I *857:EN 0.000448462
6 *673:I *864:I 0.00143149
7 *666:I *673:I 0.000485016
*RES
1 *672:Z *673:I 23.624 
*END

*D_NET *111 0.00407547
*CONN
*I *677:I I *D gf180mcu_fd_sc_mcu7t5v0__clkbuf_1
*I *676:Z O *D gf180mcu_fd_sc_mcu7t5v0__clkbuf_1
*CAP
1 *677:I 0.000856014
2 *676:Z 0.000856014
3 *677:I *665:I 8.45132e-05
4 *677:I *681:I 0.00104814
5 *677:I *683:I 0.000303258
6 *677:I *684:I 2.96621e-05
7 *677:I *854:I 0.000157493
8 *677:I *856:EN 2.23598e-06
9 *677:I *271:28 0.000631737
10 *667:I *677:I 3.2974e-05
11 *678:A1 *677:I 7.3429e-05
*RES
1 *676:Z *677:I 26.512 
*END

*D_NET *112 0.00438514
*CONN
*I *674:A2 I *D gf180mcu_fd_sc_mcu7t5v0__or2_2
*I *679:I I *D gf180mcu_fd_sc_mcu7t5v0__inv_1
*I *672:I I *D gf180mcu_fd_sc_mcu7t5v0__clkbuf_1
*I *671:Q O *D gf180mcu_fd_sc_mcu7t5v0__latrnq_1
*CAP
1 *674:A2 0.000243181
2 *679:I 0
3 *672:I 0.000372602
4 *671:Q 0.000243163
5 *112:16 0.000410397
6 *112:12 0.00052414
7 *672:I *668:EN 2.23385e-05
8 *672:I *113:10 0
9 *674:A2 *668:I 2.05953e-05
10 *674:A2 *687:I 0
11 *674:A2 *864:I 0.000233529
12 *674:A2 *121:25 0
13 *112:12 *685:A2 5.91499e-05
14 *112:12 *696:I 0.000141194
15 *112:12 *754:A1 0
16 *112:12 *864:I 0.00104128
17 *112:12 *121:25 0
18 *112:16 *668:EN 2.96621e-05
19 *112:16 *697:A1 2.9378e-06
20 *664:I *672:I 1.83267e-05
21 *666:EN *674:A2 0.000594586
22 *667:EN *672:I 1.02578e-05
23 *673:I *672:I 0.000417798
*RES
1 *671:Q *112:12 12.116 
2 *112:12 *112:16 4.728 
3 *112:16 *672:I 7.16 
4 *112:16 *679:I 4.5 
5 *112:12 *674:A2 11.28 
*END

*D_NET *113 0.00439779
*CONN
*I *678:A2 I *D gf180mcu_fd_sc_mcu7t5v0__or2_2
*I *682:I I *D gf180mcu_fd_sc_mcu7t5v0__inv_1
*I *676:I I *D gf180mcu_fd_sc_mcu7t5v0__clkbuf_1
*I *675:Q O *D gf180mcu_fd_sc_mcu7t5v0__latrnq_1
*CAP
1 *678:A2 0.00015039
2 *682:I 4.37389e-05
3 *676:I 7.21017e-05
4 *675:Q 0.000382771
5 *113:12 0.000125935
6 *113:10 0.000543254
7 *676:I *854:I 0.000526238
8 *676:I *271:28 0.000526238
9 *678:A2 *854:I 0.000310758
10 *678:A2 *271:28 0.000335667
11 *682:I *680:I 2.11447e-05
12 *113:10 *680:I 0.000393147
13 *113:10 *696:I 3.07734e-05
14 *113:12 *854:I 0.000369724
15 *113:12 *271:28 0.000390052
16 *664:I *113:10 7.41459e-05
17 *667:EN *678:A2 9.79306e-05
18 *667:EN *113:10 8.01325e-07
19 *672:I *113:10 0
20 *678:A1 *678:A2 2.98131e-06
21 *708:A1 *676:I 0
*RES
1 *675:Q *113:10 11.888 
2 *113:10 *113:12 0.988 
3 *113:12 *676:I 10.672 
4 *113:12 *682:I 9.38 
5 *113:10 *678:A2 10.9 
*END

*D_NET *114 0.00231111
*CONN
*I *680:I I *D gf180mcu_fd_sc_mcu7t5v0__clkbuf_1
*I *679:ZN O *D gf180mcu_fd_sc_mcu7t5v0__inv_1
*CAP
1 *680:I 0.000506615
2 *679:ZN 0.000506615
3 *680:I *857:EN 0.000587483
4 *680:I *864:I 0.000296109
5 *308:I *680:I 0
6 *682:I *680:I 2.11447e-05
7 *99:10 *680:I 0
8 *113:10 *680:I 0.000393147
*RES
1 *679:ZN *680:I 22.56 
*END

*D_NET *115 0.00389278
*CONN
*I *683:I I *D gf180mcu_fd_sc_mcu7t5v0__clkbuf_1
*I *682:ZN O *D gf180mcu_fd_sc_mcu7t5v0__inv_1
*CAP
1 *683:I 0.000113356
2 *682:ZN 0.000113356
3 *683:I *681:I 0.001039
4 *683:I *854:I 0.00196829
5 *683:I *271:28 0.000355519
6 *677:I *683:I 0.000303258
*RES
1 *682:ZN *683:I 22.94 
*END

*D_NET *116 0.00209342
*CONN
*I *681:I I *D gf180mcu_fd_sc_mcu7t5v0__clkbuf_1
*I *680:Z O *D gf180mcu_fd_sc_mcu7t5v0__clkbuf_1
*CAP
1 *681:I 3.14147e-06
2 *680:Z 3.14147e-06
3 *677:I *681:I 0.00104814
4 *683:I *681:I 0.001039
*RES
1 *680:Z *681:I 20.508 
*END

*D_NET *117 0.00189198
*CONN
*I *684:I I *D gf180mcu_fd_sc_mcu7t5v0__clkbuf_1
*I *683:Z O *D gf180mcu_fd_sc_mcu7t5v0__clkbuf_1
*CAP
1 *684:I 0.000199142
2 *683:Z 0.000199142
3 *684:I *665:I 2.96977e-05
4 *684:I *854:I 0.000563438
5 *684:I *856:EN 0.000300828
6 *684:I *861:I 0
7 *684:I *271:28 0.000561256
8 *667:I *684:I 8.81341e-06
9 *677:I *684:I 2.96621e-05
*RES
1 *683:Z *684:I 20.812 
*END

*D_NET *118 0.00282677
*CONN
*I *668:EN I *D gf180mcu_fd_sc_mcu7t5v0__invz_8
*I *681:Z O *D gf180mcu_fd_sc_mcu7t5v0__clkbuf_1
*CAP
1 *668:EN 0.000735463
2 *681:Z 0.000735463
3 *668:EN *668:I 0
4 *668:EN *697:A1 1.985e-05
5 *666:EN *668:EN 0.000439298
6 *667:EN *668:EN 0.000116925
7 *672:I *668:EN 2.23385e-05
8 *673:I *668:EN 0.00068957
9 *678:A1 *668:EN 2.293e-05
10 *104:10 *668:EN 1.52691e-05
11 *112:16 *668:EN 2.96621e-05
*RES
1 *681:Z *668:EN 14.624 
*END

*D_NET *119 0.000885684
*CONN
*I *669:EN I *D gf180mcu_fd_sc_mcu7t5v0__invz_4
*I *684:Z O *D gf180mcu_fd_sc_mcu7t5v0__clkbuf_1
*CAP
1 *669:EN 0.000203607
2 *684:Z 0.000203607
3 *669:EN *665:I 2.88168e-05
4 *669:EN *868:I 0.000340241
5 *669:EN *871:I 2.4706e-05
6 *667:ZN *669:EN 0
7 *670:I *669:EN 8.47063e-05
*RES
1 *684:Z *669:EN 19.672 
*END

*D_NET *120 0.00114704
*CONN
*I *675:E I *D gf180mcu_fd_sc_mcu7t5v0__latrnq_1
*I *671:E I *D gf180mcu_fd_sc_mcu7t5v0__latrnq_1
*I *685:Z O *D gf180mcu_fd_sc_mcu7t5v0__xor2_1
*CAP
1 *675:E 8.97122e-05
2 *671:E 0.000144209
3 *685:Z 5.44965e-05
4 *671:E *685:A2 0.000303714
5 *671:D *671:E 0.000382092
6 *694:D *675:E 0
7 *708:A1 *675:E 0.00011955
8 *53:254 *675:E 5.3266e-05
9 *99:20 *671:E 0
*RES
1 *685:Z *671:E 19.064 
2 *671:E *675:E 9.912 
*END

*D_NET *121 0.00856526
*CONN
*I *687:I I *D gf180mcu_fd_sc_mcu7t5v0__clkbuf_2
*I *663:I I *D gf180mcu_fd_sc_mcu7t5v0__clkbuf_2
*I *754:A1 I *D gf180mcu_fd_sc_mcu7t5v0__xor2_1
*I *666:ZN O *D gf180mcu_fd_sc_mcu7t5v0__invz_2
*I *668:ZN O *D gf180mcu_fd_sc_mcu7t5v0__invz_8
*CAP
1 *687:I 0.000183076
2 *663:I 5.63142e-05
3 *754:A1 0.00082089
4 *666:ZN 9.65534e-05
5 *668:ZN 0.00019957
6 *121:25 0.00123142
7 *121:21 0.000699442
8 *121:10 0.000458276
9 *663:I *696:I 0
10 *663:I *697:A1 2.97523e-05
11 *666:ZN *668:I 2.98535e-05
12 *687:I *145:8 1.91917e-06
13 *754:A1 *685:A2 0.000325645
14 *754:A1 *696:I 7.12395e-05
15 *754:A1 *705:I 6.51588e-05
16 *754:A1 *777:A1 0.00118838
17 *754:A1 *839:A1 5.64688e-05
18 *754:A1 *853:I 0.000300229
19 *754:A1 *134:8 0
20 *754:A1 *135:8 0
21 *754:A1 *143:16 3.73627e-05
22 *121:10 *853:I 0
23 *121:10 *864:I 6.99427e-05
24 *121:21 *668:I 2.30549e-05
25 *121:25 *853:I 0.000436911
26 *121:25 *864:I 0
27 *674:A1 *666:ZN 0
28 *674:A1 *687:I 0
29 *674:A1 *121:21 0
30 *674:A2 *687:I 0
31 *674:A2 *121:25 0
32 *694:RN *754:A1 0.000108213
33 *731:A1 *754:A1 0.000981935
34 *779:I *754:A1 3.82054e-05
35 *28:13 *754:A1 0.00052618
36 *53:16 *754:A1 0.000119906
37 *53:252 *754:A1 0.000246185
38 *56:14 *754:A1 0.000163179
39 *112:12 *754:A1 0
40 *112:12 *121:25 0
*RES
1 *668:ZN *121:10 14.64 
2 *121:10 *666:ZN 5.032 
3 *121:10 *121:21 1.064 
4 *121:21 *121:25 7.768 
5 *121:25 *754:A1 20.248 
6 *121:25 *663:I 9.38 
7 *121:21 *687:I 5.336 
*END

*D_NET *122 0.00227146
*CONN
*I *685:A2 I *D gf180mcu_fd_sc_mcu7t5v0__xor2_1
*I *663:Z O *D gf180mcu_fd_sc_mcu7t5v0__clkbuf_2
*CAP
1 *685:A2 0.000296714
2 *663:Z 0.000296714
3 *685:A2 *839:A1 0.000107588
4 *685:A2 *853:I 4.87601e-06
5 *685:A2 *864:I 7.15258e-05
6 *671:D *685:A2 4.48754e-05
7 *671:E *685:A2 0.000303714
8 *671:RN *685:A2 0.000452674
9 *754:A1 *685:A2 0.000325645
10 *26:13 *685:A2 0.000307987
11 *112:12 *685:A2 5.91499e-05
*RES
1 *663:Z *685:A2 22.332 
*END

*D_NET *123 0.00677515
*CONN
*I *685:A1 I *D gf180mcu_fd_sc_mcu7t5v0__xor2_1
*I *828:I I *D gf180mcu_fd_sc_mcu7t5v0__clkbuf_2
*I *831:ZN O *D gf180mcu_fd_sc_mcu7t5v0__invz_2
*I *852:I I *D gf180mcu_fd_sc_mcu7t5v0__clkbuf_2
*I *833:ZN O *D gf180mcu_fd_sc_mcu7t5v0__invz_8
*CAP
1 *685:A1 0.000242195
2 *828:I 0.000419545
3 *831:ZN 4.91788e-05
4 *852:I 0.000157361
5 *833:ZN 0.000480566
6 *123:12 0.00027009
7 *123:10 0.000721466
8 *828:I *765:I 0
9 *828:I *831:I 2.6126e-05
10 *828:I *832:EN 0.000163233
11 *828:I *833:EN 1.53727e-05
12 *828:I *834:EN 0.000156176
13 *828:I *835:I 9.39206e-05
14 *828:I *837:I 0.000199473
15 *828:I *848:I 0.000113921
16 *828:I *850:A2 0.000109422
17 *831:ZN *267:8 1.91917e-06
18 *831:ZN *272:20 0.00044442
19 *852:I *833:EN 4.3941e-05
20 *852:I *834:EN 0.000168637
21 *123:10 *831:I 0.000132326
22 *123:12 *831:I 0.000193933
23 *123:12 *833:EN 9.60584e-06
24 *123:12 *834:EN 0.000124318
25 *307:I *685:A1 5.09739e-06
26 *652:D *828:I 7.45328e-07
27 *652:D *831:ZN 7.83779e-05
28 *662:A1 *685:A1 0.000137776
29 *662:A1 *123:10 2.59502e-05
30 *662:A2 *685:A1 0.000367372
31 *755:I *685:A1 0
32 *829:I *123:10 0.000195532
33 *27:21 *831:ZN 0.00044442
34 *27:21 *123:10 0.00013909
35 *28:13 *123:10 0.000826319
36 *98:10 *685:A1 7.3827e-05
37 *99:20 *685:A1 0.000143499
*RES
1 *833:ZN *123:10 17.832 
2 *123:10 *123:12 0.836 
3 *123:12 *852:I 5.64 
4 *123:12 *831:ZN 14.868 
5 *123:10 *828:I 17.224 
6 *833:ZN *685:A1 11.28 
*END

*D_NET *124 0.00546831
*CONN
*I *665:I I *D gf180mcu_fd_sc_mcu7t5v0__clkbuf_1
*I *669:I I *D gf180mcu_fd_sc_mcu7t5v0__invz_4
*I *668:I I *D gf180mcu_fd_sc_mcu7t5v0__invz_8
*I *664:Z O *D gf180mcu_fd_sc_mcu7t5v0__clkbuf_2
*CAP
1 *665:I 0.000370776
2 *669:I 0
3 *668:I 0.000401153
4 *664:Z 1.55132e-05
5 *124:19 0.000396735
6 *124:8 0.000442625
7 *665:I *856:EN 0.000123951
8 *665:I *857:EN 5.75752e-06
9 *665:I *860:I 0.000665376
10 *665:I *871:I 0.000629642
11 *124:8 *860:I 0.000641851
12 *124:8 *871:I 0.000639572
13 *124:19 *860:I 0.00043076
14 *124:19 *871:I 0.000405851
15 *666:I *668:I 0
16 *666:ZN *668:I 2.98535e-05
17 *668:EN *668:I 0
18 *669:EN *665:I 2.88168e-05
19 *670:I *665:I 7.83779e-05
20 *674:A2 *668:I 2.05953e-05
21 *677:I *665:I 8.45132e-05
22 *678:A1 *665:I 3.83835e-06
23 *684:I *665:I 2.96977e-05
24 *121:21 *668:I 2.30549e-05
*RES
1 *664:Z *124:8 10.596 
2 *124:8 *668:I 11.204 
3 *124:8 *124:19 1.14 
4 *124:19 *669:I 9 
5 *124:19 *665:I 12.952 
*END

*D_NET *125 0.00132667
*CONN
*I *690:I I *D gf180mcu_fd_sc_mcu7t5v0__invz_2
*I *688:Z O *D gf180mcu_fd_sc_mcu7t5v0__clkbuf_1
*CAP
1 *690:I 0.000450993
2 *688:Z 0.000450993
3 *690:I *689:I 0.000296646
4 *690:I *690:ZN 8.4111e-06
5 *690:I *692:I 6.13012e-05
6 *690:I *693:I 2.10698e-05
7 *690:I *703:I 3.7257e-05
*RES
1 *688:Z *690:I 21.04 
*END

*D_NET *126 0.00201712
*CONN
*I *693:I I *D gf180mcu_fd_sc_mcu7t5v0__clkinv_2
*I *690:ZN O *D gf180mcu_fd_sc_mcu7t5v0__invz_2
*I *692:ZN O *D gf180mcu_fd_sc_mcu7t5v0__invz_4
*CAP
1 *693:I 5.14212e-05
2 *690:ZN 0.000103906
3 *692:ZN 0.000188786
4 *126:8 0.000344112
5 *690:ZN *689:I 0.000428182
6 *690:ZN *703:I 0.000463543
7 *690:ZN *855:I 1.54229e-05
8 *693:I *689:I 0.000244955
9 *126:8 *688:I 0
10 *126:8 *689:I 0
11 *126:8 *704:I 0.000147313
12 *690:I *690:ZN 8.4111e-06
13 *690:I *693:I 2.10698e-05
*RES
1 *692:ZN *126:8 10.14 
2 *126:8 *690:ZN 10.596 
3 *126:8 *693:I 9.684 
*END

*D_NET *127 0.00242718
*CONN
*I *689:I I *D gf180mcu_fd_sc_mcu7t5v0__invz_2
*I *693:ZN O *D gf180mcu_fd_sc_mcu7t5v0__clkinv_2
*CAP
1 *689:I 0.000558691
2 *693:ZN 0.000558691
3 *689:I *688:I 2.22758e-05
4 *689:I *691:EN 0
5 *689:I *691:I 1.14482e-05
6 *689:I *692:I 4.41876e-05
7 *689:I *704:I 5.75752e-06
8 *689:I *710:I 7.74166e-05
9 *689:I *714:I 0
10 *689:I *855:I 0.000135099
11 *689:I *143:46 4.38299e-05
12 *690:I *689:I 0.000296646
13 *690:ZN *689:I 0.000428182
14 *693:I *689:I 0.000244955
15 *126:8 *689:I 0
*RES
1 *693:ZN *689:I 23.016 
*END

*D_NET *128 0.00127785
*CONN
*I *697:A1 I *D gf180mcu_fd_sc_mcu7t5v0__or2_2
*I *696:Z O *D gf180mcu_fd_sc_mcu7t5v0__clkbuf_1
*CAP
1 *697:A1 0.000443815
2 *696:Z 0.000443815
3 *697:A1 *692:EN 0.00020365
4 *697:A1 *707:I 0.00011955
5 *663:I *697:A1 2.97523e-05
6 *666:EN *697:A1 0
7 *668:EN *697:A1 1.985e-05
8 *27:21 *697:A1 1.44832e-05
9 *112:16 *697:A1 2.9378e-06
*RES
1 *696:Z *697:A1 12.116 
*END

*D_NET *129 0.00112728
*CONN
*I *701:A1 I *D gf180mcu_fd_sc_mcu7t5v0__or2_2
*I *700:Z O *D gf180mcu_fd_sc_mcu7t5v0__clkbuf_1
*CAP
1 *701:A1 0.000234805
2 *700:Z 0.000234805
3 *701:A1 *701:A2 8.94002e-05
4 *701:A1 *705:I 6.66825e-06
5 *701:A1 *727:I 0.000331102
6 *701:A1 *135:8 1.93526e-05
7 *701:A1 *135:23 0.000164455
8 *731:A1 *701:A1 0
9 *27:21 *701:A1 4.66966e-05
*RES
1 *700:Z *701:A1 20.128 
*END

*D_NET *130 0.00143053
*CONN
*I *689:EN I *D gf180mcu_fd_sc_mcu7t5v0__invz_2
*I *697:Z O *D gf180mcu_fd_sc_mcu7t5v0__or2_2
*CAP
1 *689:EN 0.000506379
2 *697:Z 0.000506379
3 *689:EN *690:EN 3.51124e-05
4 *689:EN *692:EN 6.39952e-05
5 *689:EN *699:I 0
6 *689:EN *701:A2 9.27168e-05
7 *689:EN *714:EN 0
8 *689:EN *726:I 0.000203975
9 *689:EN *727:I 2.19739e-05
10 *27:21 *689:EN 0
*RES
1 *697:Z *689:EN 12.8 
*END

*D_NET *131 0.000660853
*CONN
*I *690:EN I *D gf180mcu_fd_sc_mcu7t5v0__invz_2
*I *701:Z O *D gf180mcu_fd_sc_mcu7t5v0__or2_2
*CAP
1 *690:EN 0.000120365
2 *701:Z 0.000120365
3 *690:EN *692:EN 0.00032464
4 *690:EN *726:I 6.03702e-05
5 *689:EN *690:EN 3.51124e-05
*RES
1 *701:Z *690:EN 10.368 
*END

*D_NET *132 0.00193843
*CONN
*I *696:I I *D gf180mcu_fd_sc_mcu7t5v0__clkbuf_1
*I *695:Z O *D gf180mcu_fd_sc_mcu7t5v0__clkbuf_1
*CAP
1 *696:I 0.000691082
2 *695:Z 0.000691082
3 *696:I *864:I 0.000256306
4 *696:I *134:8 2.98535e-05
5 *663:I *696:I 0
6 *754:A1 *696:I 7.12395e-05
7 *27:21 *696:I 0
8 *53:252 *696:I 2.40654e-06
9 *53:254 *696:I 2.44893e-05
10 *112:12 *696:I 0.000141194
11 *113:10 *696:I 3.07734e-05
*RES
1 *695:Z *696:I 13.408 
*END

*D_NET *133 0.000354969
*CONN
*I *700:I I *D gf180mcu_fd_sc_mcu7t5v0__clkbuf_1
*I *699:Z O *D gf180mcu_fd_sc_mcu7t5v0__clkbuf_1
*CAP
1 *700:I 9.8683e-05
2 *699:Z 9.8683e-05
3 *700:I *705:I 0
4 *700:I *706:I 0.00012562
5 *27:21 *700:I 3.19826e-05
*RES
1 *699:Z *700:I 10.14 
*END

*D_NET *134 0.0034975
*CONN
*I *702:I I *D gf180mcu_fd_sc_mcu7t5v0__inv_1
*I *697:A2 I *D gf180mcu_fd_sc_mcu7t5v0__or2_2
*I *695:I I *D gf180mcu_fd_sc_mcu7t5v0__clkbuf_1
*I *694:Q O *D gf180mcu_fd_sc_mcu7t5v0__latrnq_1
*CAP
1 *702:I 0.000267312
2 *697:A2 0
3 *695:I 6.72762e-05
4 *694:Q 9.56148e-05
5 *134:19 0.000406098
6 *134:8 0.000301677
7 *695:I *855:I 0.000469567
8 *702:I *692:EN 2.97523e-05
9 *702:I *703:I 0.000317494
10 *702:I *855:I 0.000778045
11 *702:I *145:8 0
12 *702:I *272:20 0
13 *134:8 *706:I 2.6126e-05
14 *134:19 *855:I 0.000569188
15 *134:19 *272:20 0
16 *674:A1 *702:I 0
17 *696:I *134:8 2.98535e-05
18 *754:A1 *134:8 0
19 *27:21 *695:I 4.13518e-05
20 *27:21 *134:8 8.2746e-05
21 *27:21 *134:19 1.54006e-05
*RES
1 *694:Q *134:8 9.836 
2 *134:8 *695:I 10.14 
3 *134:8 *134:19 1.444 
4 *134:19 *697:A2 9 
5 *134:19 *702:I 11.888 
*END

*D_NET *135 0.00234966
*CONN
*I *701:A2 I *D gf180mcu_fd_sc_mcu7t5v0__or2_2
*I *699:I I *D gf180mcu_fd_sc_mcu7t5v0__clkbuf_1
*I *705:I I *D gf180mcu_fd_sc_mcu7t5v0__inv_1
*I *698:Q O *D gf180mcu_fd_sc_mcu7t5v0__latrnq_1
*CAP
1 *701:A2 7.42687e-05
2 *699:I 3.26578e-05
3 *705:I 0.000183657
4 *698:Q 3.76768e-05
5 *135:23 0.000266889
6 *135:8 0.000381296
7 *699:I *726:I 7.47363e-05
8 *699:I *727:I 1.2994e-05
9 *701:A2 *726:I 0.000261998
10 *701:A2 *727:I 0.000210238
11 *701:A2 *143:16 6.57222e-06
12 *705:I *706:I 1.5015e-05
13 *705:I *143:16 4.60055e-05
14 *135:23 *143:16 0.000111497
15 *689:EN *699:I 0
16 *689:EN *701:A2 9.27168e-05
17 *700:I *705:I 0
18 *701:A1 *701:A2 8.94002e-05
19 *701:A1 *705:I 6.66825e-06
20 *701:A1 *135:8 1.93526e-05
21 *701:A1 *135:23 0.000164455
22 *754:A1 *705:I 6.51588e-05
23 *754:A1 *135:8 0
24 *27:21 *699:I 0.000196402
*RES
1 *698:Q *135:8 9.228 
2 *135:8 *705:I 10.444 
3 *135:8 *135:23 1.444 
4 *135:23 *699:I 9.532 
5 *135:23 *701:A2 10.368 
*END

*D_NET *136 0.0021639
*CONN
*I *703:I I *D gf180mcu_fd_sc_mcu7t5v0__clkbuf_1
*I *702:ZN O *D gf180mcu_fd_sc_mcu7t5v0__inv_1
*CAP
1 *703:I 0.00045026
2 *702:ZN 0.00045026
3 *703:I *692:EN 5.29128e-05
4 *703:I *855:I 5.57224e-06
5 *703:I *143:8 0.000221732
6 *703:I *143:16 0.000145096
7 *703:I *143:46 1.97747e-05
8 *703:I *145:8 0
9 *690:I *703:I 3.7257e-05
10 *690:ZN *703:I 0.000463543
11 *702:I *703:I 0.000317494
*RES
1 *702:ZN *703:I 21.952 
*END

*D_NET *137 0.00078047
*CONN
*I *706:I I *D gf180mcu_fd_sc_mcu7t5v0__clkbuf_1
*I *705:ZN O *D gf180mcu_fd_sc_mcu7t5v0__inv_1
*CAP
1 *706:I 0.000266204
2 *705:ZN 0.000266204
3 *700:I *706:I 0.00012562
4 *705:I *706:I 1.5015e-05
5 *27:21 *706:I 8.12999e-05
6 *134:8 *706:I 2.6126e-05
*RES
1 *705:ZN *706:I 11.128 
*END

*D_NET *138 0.00111939
*CONN
*I *704:I I *D gf180mcu_fd_sc_mcu7t5v0__clkbuf_1
*I *703:Z O *D gf180mcu_fd_sc_mcu7t5v0__clkbuf_1
*CAP
1 *704:I 0.000415381
2 *703:Z 0.000415381
3 *704:I *688:I 0
4 *704:I *855:I 8.20354e-05
5 *704:I *145:8 2.73945e-05
6 *674:A1 *704:I 2.6126e-05
7 *689:I *704:I 5.75752e-06
8 *126:8 *704:I 0.000147313
*RES
1 *703:Z *704:I 11.812 
*END

*D_NET *139 0.000388882
*CONN
*I *707:I I *D gf180mcu_fd_sc_mcu7t5v0__clkbuf_1
*I *706:Z O *D gf180mcu_fd_sc_mcu7t5v0__clkbuf_1
*CAP
1 *707:I 7.12249e-05
2 *706:Z 7.12249e-05
3 *697:A1 *707:I 0.00011955
4 *27:21 *707:I 0.000126882
*RES
1 *706:Z *707:I 9.912 
*END

*D_NET *140 0.00104461
*CONN
*I *691:EN I *D gf180mcu_fd_sc_mcu7t5v0__invz_8
*I *704:Z O *D gf180mcu_fd_sc_mcu7t5v0__clkbuf_1
*CAP
1 *691:EN 0.000464109
2 *704:Z 0.000464109
3 *691:EN *688:I 0
4 *691:EN *691:I 5.23469e-05
5 *691:EN *853:I 5.7998e-05
6 *691:EN *272:20 6.04444e-06
7 *689:I *691:EN 0
*RES
1 *704:Z *691:EN 21.192 
*END

*D_NET *141 0.0019314
*CONN
*I *692:EN I *D gf180mcu_fd_sc_mcu7t5v0__invz_4
*I *707:Z O *D gf180mcu_fd_sc_mcu7t5v0__clkbuf_1
*CAP
1 *692:EN 0.000628224
2 *707:Z 0.000628224
3 *692:EN *143:46 0
4 *666:EN *692:EN 0
5 *689:EN *692:EN 6.39952e-05
6 *690:EN *692:EN 0.00032464
7 *697:A1 *692:EN 0.00020365
8 *702:I *692:EN 2.97523e-05
9 *703:I *692:EN 5.29128e-05
*RES
1 *707:Z *692:EN 13.864 
*END

*D_NET *142 0.00150948
*CONN
*I *698:E I *D gf180mcu_fd_sc_mcu7t5v0__latrnq_1
*I *694:E I *D gf180mcu_fd_sc_mcu7t5v0__latrnq_1
*I *708:Z O *D gf180mcu_fd_sc_mcu7t5v0__xor2_1
*CAP
1 *698:E 0.000183954
2 *694:E 0.000277097
3 *708:Z 2.30069e-05
4 *142:6 0.000484058
5 *694:E *708:A2 2.9378e-06
6 *694:E *839:A1 7.45328e-07
7 *698:E *708:A2 6.13012e-05
8 *698:E *777:A2 5.4531e-05
9 *698:E *837:I 0.000372137
10 *698:E *839:A1 2.57058e-06
11 *708:A1 *694:E 4.71416e-05
12 *99:20 *694:E 0
13 *99:20 *698:E 0
*RES
1 *708:Z *142:6 4.728 
2 *142:6 *694:E 6.172 
3 *142:6 *698:E 6.248 
*END

*D_NET *143 0.00814305
*CONN
*I *710:I I *D gf180mcu_fd_sc_mcu7t5v0__clkbuf_2
*I *689:ZN O *D gf180mcu_fd_sc_mcu7t5v0__invz_2
*I *686:I I *D gf180mcu_fd_sc_mcu7t5v0__clkbuf_2
*I *777:A1 I *D gf180mcu_fd_sc_mcu7t5v0__xor2_1
*I *691:ZN O *D gf180mcu_fd_sc_mcu7t5v0__invz_8
*CAP
1 *710:I 0.000275244
2 *689:ZN 0
3 *686:I 0
4 *777:A1 0.000343537
5 *691:ZN 9.90443e-05
6 *143:46 0.000619118
7 *143:16 0.000983352
8 *143:8 0.00108273
9 *710:I *714:I 4.19329e-05
10 *710:I *155:12 0
11 *143:8 *692:I 0.000369754
12 *143:8 *145:8 1.02823e-05
13 *143:16 *726:I 0.000113292
14 *143:16 *855:I 0.00044065
15 *143:46 *692:I 0.000508573
16 *689:I *710:I 7.74166e-05
17 *689:I *143:46 4.38299e-05
18 *692:EN *143:46 0
19 *694:RN *777:A1 0.000493315
20 *694:RN *143:16 3.00299e-05
21 *701:A2 *143:16 6.57222e-06
22 *703:I *143:8 0.000221732
23 *703:I *143:16 0.000145096
24 *703:I *143:46 1.97747e-05
25 *705:I *143:16 4.60055e-05
26 *731:A1 *143:16 6.48283e-06
27 *754:A1 *777:A1 0.00118838
28 *754:A1 *143:16 3.73627e-05
29 *53:10 *777:A1 3.58941e-05
30 *53:16 *777:A1 0.000789447
31 *53:38 *777:A1 2.69281e-06
32 *135:23 *143:16 0.000111497
*RES
1 *691:ZN *143:8 6.02 
2 *143:8 *143:16 14.776 
3 *143:16 *777:A1 18.136 
4 *143:16 *686:I 4.5 
5 *143:8 *143:46 2.964 
6 *143:46 *689:ZN 4.5 
7 *143:46 *710:I 6.4 
*END

*D_NET *144 0.000469765
*CONN
*I *708:A2 I *D gf180mcu_fd_sc_mcu7t5v0__xor2_1
*I *686:Z O *D gf180mcu_fd_sc_mcu7t5v0__clkbuf_2
*CAP
1 *708:A2 0.000118663
2 *686:Z 0.000118663
3 *708:A2 *777:A2 4.78265e-05
4 *708:A2 *839:A1 0.000120373
5 *694:E *708:A2 2.9378e-06
6 *698:E *708:A2 6.13012e-05
*RES
1 *686:Z *708:A2 10.064 
*END

*D_NET *145 0.00419222
*CONN
*I *688:I I *D gf180mcu_fd_sc_mcu7t5v0__clkbuf_1
*I *691:I I *D gf180mcu_fd_sc_mcu7t5v0__invz_8
*I *692:I I *D gf180mcu_fd_sc_mcu7t5v0__invz_4
*I *687:Z O *D gf180mcu_fd_sc_mcu7t5v0__clkbuf_2
*CAP
1 *688:I 0.000359537
2 *691:I 0.000564761
3 *692:I 0.000314505
4 *687:Z 0.000182556
5 *145:8 0.000702286
6 *688:I *855:I 5.75752e-06
7 *691:I *855:I 0.000657138
8 *691:I *272:20 0
9 *692:I *855:I 0.000294274
10 *674:A1 *691:I 0
11 *674:A1 *692:I 0
12 *674:A1 *145:8 1.91917e-06
13 *687:I *145:8 1.91917e-06
14 *689:I *688:I 2.22758e-05
15 *689:I *691:I 1.14482e-05
16 *689:I *692:I 4.41876e-05
17 *690:I *692:I 6.13012e-05
18 *691:EN *688:I 0
19 *691:EN *691:I 5.23469e-05
20 *702:I *145:8 0
21 *703:I *145:8 0
22 *704:I *688:I 0
23 *704:I *145:8 2.73945e-05
24 *126:8 *688:I 0
25 *143:8 *692:I 0.000369754
26 *143:8 *145:8 1.02823e-05
27 *143:46 *692:I 0.000508573
*RES
1 *687:Z *145:8 10.14 
2 *145:8 *692:I 12.268 
3 *145:8 *691:I 10.9 
4 *691:I *688:I 11.052 
*END

*D_NET *146 0.00154225
*CONN
*I *713:I I *D gf180mcu_fd_sc_mcu7t5v0__invz_2
*I *711:Z O *D gf180mcu_fd_sc_mcu7t5v0__clkbuf_1
*CAP
1 *713:I 0.000401152
2 *711:Z 0.000401152
3 *713:I *711:I 0.00013201
4 *713:I *713:ZN 0.000105105
5 *713:I *185:10 0.000502835
*RES
1 *711:Z *713:I 12.648 
*END

*D_NET *147 0.000933477
*CONN
*I *713:ZN O *D gf180mcu_fd_sc_mcu7t5v0__invz_2
*I *716:I I *D gf180mcu_fd_sc_mcu7t5v0__clkinv_2
*I *715:ZN O *D gf180mcu_fd_sc_mcu7t5v0__invz_4
*CAP
1 *713:ZN 0.000183068
2 *716:I 0.000230746
3 *715:ZN 0
4 *147:4 0.000413813
5 *713:ZN *711:I 0
6 *716:I *711:I 0
7 *716:I *719:I 7.45328e-07
8 *716:I *720:A1 0
9 *713:I *713:ZN 0.000105105
*RES
1 *715:ZN *147:4 4.5 
2 *147:4 *716:I 5.792 
3 *147:4 *713:ZN 5.868 
*END

*D_NET *148 0.00112887
*CONN
*I *712:I I *D gf180mcu_fd_sc_mcu7t5v0__invz_2
*I *716:ZN O *D gf180mcu_fd_sc_mcu7t5v0__clkinv_2
*CAP
1 *712:I 0.000157834
2 *716:ZN 0.000157834
3 *712:I *720:A1 1.56971e-05
4 *712:I *729:I 2.48793e-05
5 *712:I *164:12 0.000726621
6 *5:17 *712:I 4.60055e-05
*RES
1 *716:ZN *712:I 19.9 
*END

*D_NET *149 0.00201558
*CONN
*I *720:A1 I *D gf180mcu_fd_sc_mcu7t5v0__or2_2
*I *719:Z O *D gf180mcu_fd_sc_mcu7t5v0__clkbuf_1
*CAP
1 *720:A1 0.00032826
2 *719:Z 0.00032826
3 *720:A1 *709:I 0.000151949
4 *720:A1 *711:I 5.86674e-06
5 *720:A1 *714:I 0
6 *720:A1 *715:I 3.56141e-05
7 *720:A1 *729:I 2.73455e-05
8 *720:A1 *164:23 0.000255048
9 *712:I *720:A1 1.56971e-05
10 *716:I *720:A1 0
11 *5:17 *720:A1 0.000867545
*RES
1 *719:Z *720:A1 21.268 
*END

*D_NET *150 0.000914296
*CONN
*I *724:A1 I *D gf180mcu_fd_sc_mcu7t5v0__or2_2
*I *723:Z O *D gf180mcu_fd_sc_mcu7t5v0__clkbuf_1
*CAP
1 *724:A1 0.00018408
2 *723:Z 0.00018408
3 *724:A1 *722:I 7.50749e-05
4 *724:A1 *723:I 0.000207821
5 *724:A1 *156:6 0
6 *724:A1 *156:19 0.000263241
*RES
1 *723:Z *724:A1 11.28 
*END

*D_NET *151 0.000342248
*CONN
*I *712:EN I *D gf180mcu_fd_sc_mcu7t5v0__invz_2
*I *720:Z O *D gf180mcu_fd_sc_mcu7t5v0__or2_2
*CAP
1 *712:EN 0.000106377
2 *720:Z 0.000106377
3 *712:EN *720:A2 8.06016e-05
4 *712:EN *728:I 1.44832e-05
5 *712:EN *729:I 1.9339e-05
6 *712:EN *156:19 1.50699e-05
*RES
1 *720:Z *712:EN 9.836 
*END

*D_NET *152 0.000995079
*CONN
*I *713:EN I *D gf180mcu_fd_sc_mcu7t5v0__invz_2
*I *724:Z O *D gf180mcu_fd_sc_mcu7t5v0__or2_2
*CAP
1 *713:EN 0.000428549
2 *724:Z 0.000428549
3 *713:EN *715:EN 0.000126956
4 *713:EN *730:I 1.1026e-05
5 *5:17 *713:EN 0
*RES
1 *724:Z *713:EN 20.204 
*END

*D_NET *153 0.00243389
*CONN
*I *719:I I *D gf180mcu_fd_sc_mcu7t5v0__clkbuf_1
*I *718:Z O *D gf180mcu_fd_sc_mcu7t5v0__clkbuf_1
*CAP
1 *719:I 0.000916573
2 *718:Z 0.000916573
3 *719:I *714:EN 0.000318496
4 *719:I *714:I 0.000147313
5 *719:I *715:I 2.46533e-05
6 *719:I *155:12 0.000109535
7 *719:I *164:12 0
8 *716:I *719:I 7.45328e-07
*RES
1 *718:Z *719:I 24.004 
*END

*D_NET *154 0.000625512
*CONN
*I *723:I I *D gf180mcu_fd_sc_mcu7t5v0__clkbuf_1
*I *722:Z O *D gf180mcu_fd_sc_mcu7t5v0__clkbuf_1
*CAP
1 *723:I 0.000152096
2 *722:Z 0.000152096
3 *723:I *722:I 1.02578e-05
4 *723:I *800:A1 0
5 *723:I *156:6 1.72912e-05
6 *723:I *176:10 8.59514e-05
7 *724:A1 *723:I 0.000207821
*RES
1 *722:Z *723:I 10.52 
*END

*D_NET *155 0.00202302
*CONN
*I *720:A2 I *D gf180mcu_fd_sc_mcu7t5v0__or2_2
*I *718:I I *D gf180mcu_fd_sc_mcu7t5v0__clkbuf_1
*I *725:I I *D gf180mcu_fd_sc_mcu7t5v0__inv_1
*I *717:Q O *D gf180mcu_fd_sc_mcu7t5v0__latrnq_1
*CAP
1 *720:A2 0.000305217
2 *718:I 0
3 *725:I 9.2722e-05
4 *717:Q 3.28034e-05
5 *155:12 0.000539931
6 *155:6 0.00078523
7 *720:A2 *156:19 9.88736e-06
8 *720:A2 *164:23 0
9 *720:A2 *164:36 2.33043e-05
10 *725:I *714:EN 2.67619e-05
11 *725:I *727:I 0
12 *155:12 *714:EN 1.70277e-05
13 *710:I *155:12 0
14 *712:EN *720:A2 8.06016e-05
15 *719:I *155:12 0.000109535
*RES
1 *717:Q *155:6 4.728 
2 *155:6 *155:12 7.388 
3 *155:12 *725:I 9.684 
4 *155:12 *718:I 9 
5 *155:6 *720:A2 6.4 
*END

*D_NET *156 0.00170407
*CONN
*I *724:A2 I *D gf180mcu_fd_sc_mcu7t5v0__or2_2
*I *722:I I *D gf180mcu_fd_sc_mcu7t5v0__clkbuf_1
*I *728:I I *D gf180mcu_fd_sc_mcu7t5v0__inv_1
*I *721:Q O *D gf180mcu_fd_sc_mcu7t5v0__latrnq_1
*CAP
1 *724:A2 2.25306e-05
2 *722:I 0.000126826
3 *728:I 2.13979e-05
4 *721:Q 6.63469e-05
5 *156:19 0.000481374
6 *156:6 0.000419763
7 *722:I *164:36 1.0115e-05
8 *722:I *176:10 2.40328e-06
9 *728:I *729:I 3.08902e-05
10 *156:19 *729:I 8.69862e-05
11 *156:19 *164:36 3.01323e-05
12 *311:I *728:I 0
13 *311:I *156:19 0
14 *712:EN *728:I 1.44832e-05
15 *712:EN *156:19 1.50699e-05
16 *720:A2 *156:19 9.88736e-06
17 *723:I *722:I 1.02578e-05
18 *723:I *156:6 1.72912e-05
19 *724:A1 *722:I 7.50749e-05
20 *724:A1 *156:6 0
21 *724:A1 *156:19 0.000263241
*RES
1 *721:Q *156:6 5.032 
2 *156:6 *728:I 4.728 
3 *156:6 *156:19 2.812 
4 *156:19 *722:I 5.792 
5 *156:19 *724:A2 4.728 
*END

*D_NET *157 0.00156493
*CONN
*I *726:I I *D gf180mcu_fd_sc_mcu7t5v0__clkbuf_1
*I *725:ZN O *D gf180mcu_fd_sc_mcu7t5v0__inv_1
*CAP
1 *726:I 0.000313213
2 *725:ZN 0.000313213
3 *726:I *714:EN 0.000161672
4 *726:I *727:I 4.58023e-05
5 *689:EN *726:I 0.000203975
6 *690:EN *726:I 6.03702e-05
7 *699:I *726:I 7.47363e-05
8 *701:A2 *726:I 0.000261998
9 *27:21 *726:I 1.66555e-05
10 *143:16 *726:I 0.000113292
*RES
1 *725:ZN *726:I 21.116 
*END

*D_NET *158 0.00215351
*CONN
*I *729:I I *D gf180mcu_fd_sc_mcu7t5v0__clkbuf_1
*I *728:ZN O *D gf180mcu_fd_sc_mcu7t5v0__inv_1
*CAP
1 *729:I 0.000607937
2 *728:ZN 0.000607937
3 *729:I *709:I 0.000284017
4 *729:I *711:I 3.55017e-05
5 *729:I *714:EN 0
6 *729:I *715:EN 6.44365e-05
7 *729:I *715:I 0.000241522
8 *729:I *164:12 1.06505e-05
9 *729:I *164:23 0.000112069
10 *712:EN *729:I 1.9339e-05
11 *712:I *729:I 2.48793e-05
12 *720:A1 *729:I 2.73455e-05
13 *728:I *729:I 3.08902e-05
14 *156:19 *729:I 8.69862e-05
*RES
1 *728:ZN *729:I 22.864 
*END

*D_NET *159 0.00108578
*CONN
*I *727:I I *D gf180mcu_fd_sc_mcu7t5v0__clkbuf_1
*I *726:Z O *D gf180mcu_fd_sc_mcu7t5v0__clkbuf_1
*CAP
1 *727:I 0.000231834
2 *726:Z 0.000231834
3 *689:EN *727:I 2.19739e-05
4 *699:I *727:I 1.2994e-05
5 *701:A1 *727:I 0.000331102
6 *701:A2 *727:I 0.000210238
7 *725:I *727:I 0
8 *726:I *727:I 4.58023e-05
*RES
1 *726:Z *727:I 20.052 
*END

*D_NET *160 0.00265176
*CONN
*I *730:I I *D gf180mcu_fd_sc_mcu7t5v0__clkbuf_1
*I *729:Z O *D gf180mcu_fd_sc_mcu7t5v0__clkbuf_1
*CAP
1 *730:I 0.000580578
2 *729:Z 0.000580578
3 *730:I *711:I 0
4 *730:I *715:EN 0.00122957
5 *730:I *800:A1 4.06416e-05
6 *730:I *884:I 3.83946e-05
7 *730:I *164:36 6.23713e-06
8 *730:I *176:10 1.02823e-05
9 *730:I *185:14 0
10 *326:I *730:I 0.000154451
11 *713:EN *730:I 1.1026e-05
*RES
1 *729:Z *730:I 22.864 
*END

*D_NET *161 0.00220624
*CONN
*I *714:EN I *D gf180mcu_fd_sc_mcu7t5v0__invz_8
*I *727:Z O *D gf180mcu_fd_sc_mcu7t5v0__clkbuf_1
*CAP
1 *714:EN 0.000505149
2 *727:Z 0.000505149
3 *311:I *714:EN 9.26705e-05
4 *689:EN *714:EN 0
5 *717:RN *714:EN 1.24299e-05
6 *719:I *714:EN 0.000318496
7 *725:I *714:EN 2.67619e-05
8 *726:I *714:EN 0.000161672
9 *729:I *714:EN 0
10 *27:21 *714:EN 0.000566884
11 *155:12 *714:EN 1.70277e-05
*RES
1 *727:Z *714:EN 23.396 
*END

*D_NET *162 0.00300133
*CONN
*I *715:EN I *D gf180mcu_fd_sc_mcu7t5v0__invz_4
*I *730:Z O *D gf180mcu_fd_sc_mcu7t5v0__clkbuf_1
*CAP
1 *715:EN 0.000578895
2 *730:Z 0.000578895
3 *715:EN *884:I 1.12495e-05
4 *715:EN *164:36 0.000244079
5 *715:EN *176:10 0.000138245
6 *326:I *715:EN 1.9953e-05
7 *713:EN *715:EN 0.000126956
8 *729:I *715:EN 6.44365e-05
9 *730:I *715:EN 0.00122957
10 *5:17 *715:EN 9.04915e-06
*RES
1 *730:Z *715:EN 23.548 
*END

*D_NET *163 0.00144094
*CONN
*I *717:E I *D gf180mcu_fd_sc_mcu7t5v0__latrnq_1
*I *721:E I *D gf180mcu_fd_sc_mcu7t5v0__latrnq_1
*I *731:Z O *D gf180mcu_fd_sc_mcu7t5v0__xor2_1
*CAP
1 *717:E 0.000196874
2 *721:E 0.00015063
3 *731:Z 0
4 *163:4 0.000347503
5 *717:E *731:A2 0
6 *721:E *731:A2 0.000519441
7 *311:I *717:E 0.000123561
8 *311:I *721:E 0
9 *27:21 *717:E 9.26705e-05
10 *56:14 *717:E 0
11 *56:14 *721:E 1.02578e-05
*RES
1 *731:Z *163:4 4.5 
2 *163:4 *721:E 6.02 
3 *163:4 *717:E 6.172 
*END

*D_NET *164 0.0159028
*CONN
*I *800:A1 I *D gf180mcu_fd_sc_mcu7t5v0__xor2_1
*I *826:I I *D gf180mcu_fd_sc_mcu7t5v0__clkinv_2
*I *733:I I *D gf180mcu_fd_sc_mcu7t5v0__clkbuf_2
*I *709:I I *D gf180mcu_fd_sc_mcu7t5v0__clkbuf_2
*I *712:ZN O *D gf180mcu_fd_sc_mcu7t5v0__invz_2
*I *714:ZN O *D gf180mcu_fd_sc_mcu7t5v0__invz_8
*CAP
1 *800:A1 0.00126846
2 *826:I 0.000903178
3 *733:I 0
4 *709:I 0.00143451
5 *712:ZN 0
6 *714:ZN 0.000569912
7 *164:36 0.00155688
8 *164:23 0.0010227
9 *164:12 0.000772865
10 *800:A1 *756:I 0.000369754
11 *800:A1 *800:A2 8.55327e-05
12 *800:A1 *884:I 0.000453575
13 *800:A1 *176:10 0.000108138
14 *826:I *736:EN 1.15244e-05
15 *826:I *736:I 0
16 *826:I *736:ZN 0
17 *826:I *737:EN 0
18 *826:I *752:I 0.00012045
19 *826:I *753:I 3.73535e-05
20 *826:I *781:I 0
21 *826:I *798:I 3.17634e-05
22 *826:I *815:I 0
23 *826:I *816:A1 0.000653985
24 *164:23 *715:I 3.52288e-05
25 *164:36 *736:ZN 0
26 *164:36 *737:EN 0
27 *164:36 *737:I 0.000363988
28 *164:36 *748:I 0.000137078
29 *164:36 *168:10 8.55327e-05
30 *164:36 *187:8 0.000184378
31 clockp[1] *826:I 0.000149579
32 *311:I *800:A1 1.5015e-05
33 *628:A1 *826:I 0
34 *630:I *826:I 0.000211572
35 *712:I *164:12 0.000726621
36 *715:EN *164:36 0.000244079
37 *717:RN *709:I 6.47993e-06
38 *719:I *164:12 0
39 *720:A1 *709:I 0.000151949
40 *720:A1 *164:23 0.000255048
41 *720:A2 *164:23 0
42 *720:A2 *164:36 2.33043e-05
43 *722:I *164:36 1.0115e-05
44 *723:I *800:A1 0
45 *729:I *709:I 0.000284017
46 *729:I *164:12 1.06505e-05
47 *729:I *164:23 0.000112069
48 *730:I *800:A1 4.06416e-05
49 *730:I *164:36 6.23713e-06
50 *827:I *826:I 1.2018e-05
51 *880:I *800:A1 0.000500766
52 *5:17 *709:I 0.000482145
53 *5:17 *800:A1 0.00018401
54 *5:17 *164:12 2.13476e-05
55 *5:23 *800:A1 0.000227452
56 *5:27 *800:A1 0.000387688
57 *14:17 *800:A1 0.000955749
58 *15:27 *800:A1 1.32603e-05
59 *53:89 *800:A1 2.03665e-05
60 *53:231 *800:A1 0.000460937
61 *56:20 *800:A1 0
62 *76:72 *800:A1 0.00013677
63 *101:8 *800:A1 1.5961e-05
64 *156:19 *164:36 3.01323e-05
*RES
1 *714:ZN *164:12 17.604 
2 *164:12 *712:ZN 4.5 
3 *164:12 *164:23 6.172 
4 *164:23 *709:I 11.812 
5 *164:23 *164:36 10.2 
6 *164:36 *733:I 4.5 
7 *164:36 *826:I 11.112 
8 *709:I *800:A1 30.92 
*END

*D_NET *165 0.00170373
*CONN
*I *731:A2 I *D gf180mcu_fd_sc_mcu7t5v0__xor2_1
*I *709:Z O *D gf180mcu_fd_sc_mcu7t5v0__clkbuf_2
*CAP
1 *731:A2 0.000304891
2 *709:Z 0.000304891
3 *311:I *731:A2 0.000135135
4 *717:E *731:A2 0
5 *721:D *731:A2 0.00018301
6 *721:E *731:A2 0.000519441
7 *5:17 *731:A2 2.57058e-06
8 *5:23 *731:A2 0
9 *15:27 *731:A2 1.34641e-06
10 *53:62 *731:A2 3.80391e-05
11 *56:14 *731:A2 0.000214408
*RES
1 *709:Z *731:A2 21.496 
*END

*D_NET *166 0.00346286
*CONN
*I *711:I I *D gf180mcu_fd_sc_mcu7t5v0__clkbuf_1
*I *715:I I *D gf180mcu_fd_sc_mcu7t5v0__invz_4
*I *714:I I *D gf180mcu_fd_sc_mcu7t5v0__invz_8
*I *710:Z O *D gf180mcu_fd_sc_mcu7t5v0__clkbuf_2
*CAP
1 *711:I 0.000471921
2 *715:I 0.000816613
3 *714:I 0.00065827
4 *710:Z 0.000313578
5 *711:I *185:10 0.000502835
6 *689:I *714:I 0
7 *710:I *714:I 4.19329e-05
8 *713:I *711:I 0.00013201
9 *713:ZN *711:I 0
10 *716:I *711:I 0
11 *719:I *714:I 0.000147313
12 *719:I *715:I 2.46533e-05
13 *720:A1 *711:I 5.86674e-06
14 *720:A1 *714:I 0
15 *720:A1 *715:I 3.56141e-05
16 *729:I *711:I 3.55017e-05
17 *729:I *715:I 0.000241522
18 *730:I *711:I 0
19 *164:23 *715:I 3.52288e-05
*RES
1 *710:Z *714:I 11.28 
2 *714:I *715:I 11.432 
3 *715:I *711:I 12.724 
*END

*D_NET *167 0.00123355
*CONN
*I *736:I I *D gf180mcu_fd_sc_mcu7t5v0__invz_2
*I *734:Z O *D gf180mcu_fd_sc_mcu7t5v0__clkbuf_1
*CAP
1 *736:I 0.000200017
2 *734:Z 0.000200017
3 *736:I *734:I 8.9996e-05
4 *736:I *736:ZN 0.00025334
5 *736:I *738:EN 1.83267e-05
6 *736:I *746:I 5.15447e-05
7 *736:I *747:A1 0.000247042
8 *736:I *751:I 0.000170692
9 *736:I *753:I 2.57058e-06
10 *826:I *736:I 0
*RES
1 *734:Z *736:I 20.432 
*END

*D_NET *168 0.00228108
*CONN
*I *739:I I *D gf180mcu_fd_sc_mcu7t5v0__clkinv_2
*I *736:ZN O *D gf180mcu_fd_sc_mcu7t5v0__invz_2
*I *738:ZN O *D gf180mcu_fd_sc_mcu7t5v0__invz_4
*CAP
1 *739:I 0.000165248
2 *736:ZN 0.000332083
3 *738:ZN 0.000261177
4 *168:10 0.000758508
5 *736:ZN *738:EN 2.25e-05
6 *736:ZN *187:8 4.71484e-05
7 *739:I *734:I 9.11849e-05
8 *739:I *735:I 0.000177642
9 *168:10 *734:I 2.12988e-05
10 *168:10 *735:I 2.0844e-05
11 *168:10 *746:I 1.37988e-05
12 *168:10 *748:I 3.07734e-05
13 *168:10 *185:14 0
14 *736:I *736:ZN 0.00025334
15 *826:I *736:ZN 0
16 *164:36 *736:ZN 0
17 *164:36 *168:10 8.55327e-05
*RES
1 *738:ZN *168:10 10.52 
2 *168:10 *736:ZN 11.128 
3 *168:10 *739:I 10.596 
*END

*D_NET *169 0.0010434
*CONN
*I *735:I I *D gf180mcu_fd_sc_mcu7t5v0__invz_2
*I *739:ZN O *D gf180mcu_fd_sc_mcu7t5v0__clkinv_2
*CAP
1 *735:I 0.000376089
2 *739:ZN 0.000376089
3 *735:I *734:I 0
4 *735:I *737:I 6.77492e-05
5 *735:I *185:10 2.49867e-05
6 *739:I *735:I 0.000177642
7 *168:10 *735:I 2.0844e-05
*RES
1 *739:ZN *735:I 20.736 
*END

*D_NET *170 0.000436632
*CONN
*I *743:A1 I *D gf180mcu_fd_sc_mcu7t5v0__or2_2
*I *742:Z O *D gf180mcu_fd_sc_mcu7t5v0__clkbuf_1
*CAP
1 *743:A1 0.000170338
2 *742:Z 0.000170338
3 *743:A1 *742:I 6.50663e-05
4 *743:A1 *748:I 3.08902e-05
5 *743:A1 *176:19 0
*RES
1 *742:Z *743:A1 10.292 
*END

*D_NET *171 0.00197155
*CONN
*I *747:A1 I *D gf180mcu_fd_sc_mcu7t5v0__or2_2
*I *746:Z O *D gf180mcu_fd_sc_mcu7t5v0__clkbuf_1
*CAP
1 *747:A1 0.000162097
2 *746:Z 0.000162097
3 *747:A1 *746:I 0.00119461
4 *747:A1 *751:I 0.000205706
5 *736:I *747:A1 0.000247042
*RES
1 *746:Z *747:A1 21.116 
*END

*D_NET *172 0.000691381
*CONN
*I *735:EN I *D gf180mcu_fd_sc_mcu7t5v0__invz_2
*I *743:Z O *D gf180mcu_fd_sc_mcu7t5v0__or2_2
*CAP
1 *735:EN 5.44962e-06
2 *743:Z 5.44962e-06
3 *735:EN *748:I 0.000340241
4 *735:EN *185:14 0.000340241
*RES
1 *743:Z *735:EN 18.836 
*END

*D_NET *173 0.000947073
*CONN
*I *736:EN I *D gf180mcu_fd_sc_mcu7t5v0__invz_2
*I *747:Z O *D gf180mcu_fd_sc_mcu7t5v0__or2_2
*CAP
1 *736:EN 0.000350953
2 *747:Z 0.000350953
3 *736:EN *737:EN 5.87561e-06
4 *736:EN *745:I 1.15275e-05
5 *736:EN *746:I 4.63008e-05
6 *736:EN *747:A2 4.63008e-05
7 *736:EN *750:I 5.87561e-06
8 *736:EN *816:A1 0.000117762
9 *826:I *736:EN 1.15244e-05
10 *78:8 *736:EN 0
*RES
1 *747:Z *736:EN 11.508 
*END

*D_NET *174 0.00109173
*CONN
*I *742:I I *D gf180mcu_fd_sc_mcu7t5v0__clkbuf_1
*I *741:Z O *D gf180mcu_fd_sc_mcu7t5v0__clkbuf_1
*CAP
1 *742:I 0.000295801
2 *741:Z 0.000295801
3 *742:I *737:EN 0.000162534
4 *742:I *748:I 3.73535e-05
5 *742:I *750:I 1.52691e-05
6 *742:I *176:10 2.05156e-05
7 *742:I *176:19 0.000199393
8 *743:A1 *742:I 6.50663e-05
*RES
1 *741:Z *742:I 11.812 
*END

*D_NET *175 0.00323713
*CONN
*I *746:I I *D gf180mcu_fd_sc_mcu7t5v0__clkbuf_1
*I *745:Z O *D gf180mcu_fd_sc_mcu7t5v0__clkbuf_1
*CAP
1 *746:I 0.000443676
2 *745:Z 0.000443676
3 *746:I *734:I 0.000632045
4 *746:I *747:A2 7.54771e-06
5 *746:I *749:I 0
6 *746:I *750:I 0.000317494
7 *746:I *751:I 1.12113e-05
8 *746:I *177:12 7.52312e-05
9 *736:EN *746:I 4.63008e-05
10 *736:I *746:I 5.15447e-05
11 *747:A1 *746:I 0.00119461
12 *168:10 *746:I 1.37988e-05
*RES
1 *745:Z *746:I 23.472 
*END

*D_NET *176 0.0033726
*CONN
*I *748:I I *D gf180mcu_fd_sc_mcu7t5v0__inv_1
*I *743:A2 I *D gf180mcu_fd_sc_mcu7t5v0__or2_2
*I *741:I I *D gf180mcu_fd_sc_mcu7t5v0__clkbuf_1
*I *740:Q O *D gf180mcu_fd_sc_mcu7t5v0__latrnq_1
*CAP
1 *748:I 0.000352972
2 *743:A2 0
3 *741:I 0
4 *740:Q 0.000293537
5 *176:19 0.000493857
6 *176:10 0.000434422
7 *748:I *737:EN 6.8278e-05
8 *748:I *749:I 0.000371006
9 *748:I *185:14 0.000174847
10 *326:I *176:19 3.56141e-05
11 *715:EN *176:10 0.000138245
12 *722:I *176:10 2.40328e-06
13 *723:I *176:10 8.59514e-05
14 *730:I *176:10 1.02823e-05
15 *735:EN *748:I 0.000340241
16 *742:I *748:I 3.73535e-05
17 *742:I *176:10 2.05156e-05
18 *742:I *176:19 0.000199393
19 *743:A1 *748:I 3.08902e-05
20 *743:A1 *176:19 0
21 *800:A1 *176:10 0.000108138
22 *5:17 *176:10 6.80238e-06
23 *164:36 *748:I 0.000137078
24 *168:10 *748:I 3.07734e-05
*RES
1 *740:Q *176:10 6.856 
2 *176:10 *741:I 4.5 
3 *176:10 *176:19 1.368 
4 *176:19 *743:A2 4.5 
5 *176:19 *748:I 17.528 
*END

*D_NET *177 0.00350353
*CONN
*I *745:I I *D gf180mcu_fd_sc_mcu7t5v0__clkbuf_1
*I *751:I I *D gf180mcu_fd_sc_mcu7t5v0__inv_1
*I *747:A2 I *D gf180mcu_fd_sc_mcu7t5v0__or2_2
*I *744:Q O *D gf180mcu_fd_sc_mcu7t5v0__latrnq_1
*CAP
1 *745:I 2.83596e-05
2 *751:I 0.000516231
3 *747:A2 6.94735e-05
4 *744:Q 0.000133247
5 *177:12 0.00070089
6 *177:8 0.000276792
7 *745:I *750:I 8.55327e-05
8 *745:I *783:I 0
9 *745:I *882:I 1.2339e-05
10 *747:A2 *737:EN 0.000310356
11 *751:I *734:I 5.94709e-06
12 *751:I *738:EN 7.45328e-07
13 *751:I *752:I 0.000177315
14 *751:I *816:A1 0.000230129
15 *177:8 *750:I 4.45507e-05
16 *177:8 *783:I 0
17 *177:8 *882:I 9.88736e-06
18 *177:12 *750:I 0.000324241
19 *177:12 *816:A1 4.92793e-05
20 *736:EN *745:I 1.15275e-05
21 *736:EN *747:A2 4.63008e-05
22 *736:I *751:I 0.000170692
23 *746:I *747:A2 7.54771e-06
24 *746:I *751:I 1.12113e-05
25 *746:I *177:12 7.52312e-05
26 *747:A1 *751:I 0.000205706
*RES
1 *744:Q *177:8 5.412 
2 *177:8 *177:12 5.792 
3 *177:12 *747:A2 9.836 
4 *177:12 *751:I 13.712 
5 *177:8 *745:I 4.88 
*END

*D_NET *178 0.00123282
*CONN
*I *749:I I *D gf180mcu_fd_sc_mcu7t5v0__clkbuf_1
*I *748:ZN O *D gf180mcu_fd_sc_mcu7t5v0__inv_1
*CAP
1 *749:I 0.000400255
2 *748:ZN 0.000400255
3 *749:I *737:EN 6.13012e-05
4 *749:I *185:14 0
5 *746:I *749:I 0
6 *748:I *749:I 0.000371006
*RES
1 *748:ZN *749:I 21.04 
*END

*D_NET *179 0.00221689
*CONN
*I *752:I I *D gf180mcu_fd_sc_mcu7t5v0__clkbuf_1
*I *751:ZN O *D gf180mcu_fd_sc_mcu7t5v0__inv_1
*CAP
1 *752:I 0.000767473
2 *751:ZN 0.000767473
3 *752:I *753:I 4.50449e-05
4 *752:I *781:I 5.76373e-06
5 *752:I *814:I 0
6 *752:I *816:A1 0.000333372
7 *751:I *752:I 0.000177315
8 *826:I *752:I 0.00012045
9 *78:8 *752:I 0
10 *78:23 *752:I 0
*RES
1 *751:ZN *752:I 23.32 
*END

*D_NET *180 0.00155409
*CONN
*I *750:I I *D gf180mcu_fd_sc_mcu7t5v0__clkbuf_1
*I *749:Z O *D gf180mcu_fd_sc_mcu7t5v0__clkbuf_1
*CAP
1 *750:I 0.000301119
2 *749:Z 0.000301119
3 *750:I *737:EN 0
4 *750:I *816:A1 0.000158886
5 *736:EN *750:I 5.87561e-06
6 *742:I *750:I 1.52691e-05
7 *745:I *750:I 8.55327e-05
8 *746:I *750:I 0.000317494
9 *177:8 *750:I 4.45507e-05
10 *177:12 *750:I 0.000324241
*RES
1 *749:Z *750:I 21.04 
*END

*D_NET *181 0.0023909
*CONN
*I *753:I I *D gf180mcu_fd_sc_mcu7t5v0__clkbuf_1
*I *752:Z O *D gf180mcu_fd_sc_mcu7t5v0__clkbuf_1
*CAP
1 *753:I 0.000736917
2 *752:Z 0.000736917
3 *753:I *814:I 0.00020703
4 *753:I *815:I 1.54542e-05
5 *628:A1 *753:I 0.000609614
6 *736:I *753:I 2.57058e-06
7 *752:I *753:I 4.50449e-05
8 *826:I *753:I 3.73535e-05
*RES
1 *752:Z *753:I 22.94 
*END

*D_NET *182 0.00174876
*CONN
*I *737:EN I *D gf180mcu_fd_sc_mcu7t5v0__invz_8
*I *750:Z O *D gf180mcu_fd_sc_mcu7t5v0__clkbuf_1
*CAP
1 *737:EN 0.000570206
2 *750:Z 0.000570206
3 *736:EN *737:EN 5.87561e-06
4 *742:I *737:EN 0.000162534
5 *747:A2 *737:EN 0.000310356
6 *748:I *737:EN 6.8278e-05
7 *749:I *737:EN 6.13012e-05
8 *750:I *737:EN 0
9 *826:I *737:EN 0
10 *164:36 *737:EN 0
*RES
1 *750:Z *737:EN 13.18 
*END

*D_NET *183 0.000856284
*CONN
*I *738:EN I *D gf180mcu_fd_sc_mcu7t5v0__invz_4
*I *753:Z O *D gf180mcu_fd_sc_mcu7t5v0__clkbuf_1
*CAP
1 *738:EN 0.000407356
2 *753:Z 0.000407356
3 *736:I *738:EN 1.83267e-05
4 *736:ZN *738:EN 2.25e-05
5 *751:I *738:EN 7.45328e-07
*RES
1 *753:Z *738:EN 11.128 
*END

*D_NET *184 0.00305597
*CONN
*I *744:E I *D gf180mcu_fd_sc_mcu7t5v0__latrnq_1
*I *740:E I *D gf180mcu_fd_sc_mcu7t5v0__latrnq_1
*I *754:Z O *D gf180mcu_fd_sc_mcu7t5v0__xor2_1
*CAP
1 *744:E 0.000388186
2 *740:E 0
3 *754:Z 0.000129395
4 *184:8 0.00051758
5 *744:E *783:I 0.000136871
6 *744:E *878:I 0
7 *744:E *884:I 7.64884e-05
8 *184:8 *884:I 2.76081e-05
9 *314:I *744:E 7.45328e-07
10 *326:I *744:E 0
11 *721:D *184:8 5.70161e-05
12 *744:RN *744:E 0.000164594
13 *779:I *744:E 0.00117188
14 *779:I *184:8 0.000382459
15 *5:17 *184:8 0
16 *56:14 *184:8 3.1394e-06
*RES
1 *754:Z *184:8 5.868 
2 *184:8 *740:E 4.5 
3 *184:8 *744:E 9.06 
*END

*D_NET *185 0.00988566
*CONN
*I *735:ZN O *D gf180mcu_fd_sc_mcu7t5v0__invz_2
*I *732:I I *D gf180mcu_fd_sc_mcu7t5v0__clkbuf_2
*I *756:I I *D gf180mcu_fd_sc_mcu7t5v0__clkbuf_2
*I *823:A1 I *D gf180mcu_fd_sc_mcu7t5v0__xor2_1
*I *737:ZN O *D gf180mcu_fd_sc_mcu7t5v0__invz_8
*CAP
1 *735:ZN 0
2 *732:I 0.000191921
3 *756:I 0.000304406
4 *823:A1 0.000333706
5 *737:ZN 0.00033781
6 *185:24 0.00124335
7 *185:14 0.00182861
8 *185:10 0.00136926
9 *732:I *754:A2 8.7551e-05
10 *732:I *874:A1 1.26856e-05
11 *732:I *878:I 5.76373e-06
12 *732:I *878:ZN 0
13 *823:A1 *823:A2 3.07734e-05
14 *185:14 *297:12 9.77285e-05
15 *185:24 *754:A2 3.0618e-05
16 *185:24 *874:A1 6.44359e-05
17 *185:24 *297:12 0
18 *313:I *185:24 0
19 *616:A1 *756:I 0.000244079
20 *616:A1 *823:A1 1.99755e-05
21 *711:I *185:10 0.000502835
22 *713:I *185:10 0.000502835
23 *730:I *185:14 0
24 *735:EN *185:14 0.000340241
25 *735:I *185:10 2.49867e-05
26 *748:I *185:14 0.000174847
27 *749:I *185:14 0
28 *800:A1 *756:I 0.000369754
29 *884:EN *185:24 2.88786e-05
30 *5:23 *185:14 0
31 *5:27 *823:A1 5.37016e-05
32 *5:27 *185:24 0.00010922
33 *5:31 *823:A1 7.7322e-05
34 *14:17 *756:I 0.000524951
35 *14:17 *823:A1 0
36 *53:82 *756:I 8.34306e-05
37 *53:89 *756:I 4.58601e-06
38 *53:95 *823:A1 0.000324181
39 *53:108 *823:A1 4.13847e-05
40 *56:22 *756:I 0.000298083
41 *101:14 *823:A1 0.000221741
42 *168:10 *185:14 0
*RES
1 *737:ZN *185:10 11.888 
2 *185:10 *185:14 11.264 
3 *185:14 *185:24 7.996 
4 *185:24 *823:A1 12.496 
5 *185:24 *756:I 13.18 
6 *185:14 *732:I 5.792 
7 *185:10 *735:ZN 9 
*END

*D_NET *186 0.0024988
*CONN
*I *754:A2 I *D gf180mcu_fd_sc_mcu7t5v0__xor2_1
*I *732:Z O *D gf180mcu_fd_sc_mcu7t5v0__clkbuf_2
*CAP
1 *754:A2 0.000332126
2 *732:Z 0.000332126
3 *754:A2 *297:6 0.000493315
4 *313:I *754:A2 1.73145e-05
5 *732:I *754:A2 8.7551e-05
6 *740:D *754:A2 1.02578e-05
7 *744:RN *754:A2 1.76898e-05
8 *884:EN *754:A2 0.000178949
9 *15:27 *754:A2 0.000799461
10 *28:13 *754:A2 0.000199393
11 *185:24 *754:A2 3.0618e-05
*RES
1 *732:Z *754:A2 13.484 
*END

*D_NET *187 0.00298991
*CONN
*I *734:I I *D gf180mcu_fd_sc_mcu7t5v0__clkbuf_1
*I *738:I I *D gf180mcu_fd_sc_mcu7t5v0__invz_4
*I *737:I I *D gf180mcu_fd_sc_mcu7t5v0__invz_8
*I *733:Z O *D gf180mcu_fd_sc_mcu7t5v0__clkbuf_2
*CAP
1 *734:I 0.000319324
2 *738:I 0.000106386
3 *737:I 0.000196809
4 *733:Z 0
5 *187:8 0.000423762
6 *187:4 0.000439891
7 *735:I *734:I 0
8 *735:I *737:I 6.77492e-05
9 *736:I *734:I 8.9996e-05
10 *736:ZN *187:8 4.71484e-05
11 *739:I *734:I 9.11849e-05
12 *746:I *734:I 0.000632045
13 *751:I *734:I 5.94709e-06
14 *164:36 *737:I 0.000363988
15 *164:36 *187:8 0.000184378
16 *168:10 *734:I 2.12988e-05
*RES
1 *733:Z *187:4 4.5 
2 *187:4 *187:8 1.368 
3 *187:8 *737:I 6.552 
4 *187:8 *738:I 5.26 
5 *187:4 *734:I 16.388 
*END

*D_NET *188 0.00113341
*CONN
*I *759:I I *D gf180mcu_fd_sc_mcu7t5v0__invz_2
*I *757:Z O *D gf180mcu_fd_sc_mcu7t5v0__clkbuf_1
*CAP
1 *759:I 0.00031472
2 *757:Z 0.00031472
3 *759:I *759:EN 5.13352e-06
4 *759:I *762:I 0.000371894
5 *53:10 *759:I 1.95496e-05
6 *56:20 *759:I 0.000107398
*RES
1 *757:Z *759:I 20.66 
*END

*D_NET *189 0.00246533
*CONN
*I *759:ZN O *D gf180mcu_fd_sc_mcu7t5v0__invz_2
*I *762:I I *D gf180mcu_fd_sc_mcu7t5v0__clkinv_2
*I *761:ZN O *D gf180mcu_fd_sc_mcu7t5v0__invz_4
*CAP
1 *759:ZN 0
2 *762:I 0.000248168
3 *761:ZN 0.000203581
4 *189:8 0.000451749
5 *762:I *757:I 8.45062e-05
6 *762:I *759:EN 4.61878e-05
7 *762:I *760:I 2.97354e-06
8 *189:8 *837:I 8.13169e-05
9 *759:I *762:I 0.000371894
10 *14:17 *189:8 7.30678e-05
11 *53:10 *762:I 0.000593906
12 *101:34 *762:I 0.000307974
*RES
1 *761:ZN *189:8 5.868 
2 *189:8 *762:I 16.692 
3 *189:8 *759:ZN 4.5 
*END

*D_NET *190 0.00193733
*CONN
*I *758:I I *D gf180mcu_fd_sc_mcu7t5v0__invz_2
*I *762:ZN O *D gf180mcu_fd_sc_mcu7t5v0__clkinv_2
*CAP
1 *758:I 0.000139326
2 *762:ZN 0.000139326
3 *758:I *757:I 0.000134113
4 *758:I *760:I 0.000110986
5 *758:I *205:16 0.000498355
6 *698:D *758:I 1.72912e-05
7 *14:17 *758:I 0.000171929
8 *56:22 *758:I 0.000726001
*RES
1 *762:ZN *758:I 21.192 
*END

*D_NET *191 0.00102372
*CONN
*I *766:A1 I *D gf180mcu_fd_sc_mcu7t5v0__or2_2
*I *765:Z O *D gf180mcu_fd_sc_mcu7t5v0__clkbuf_1
*CAP
1 *766:A1 0.000460297
2 *765:Z 0.000460297
3 *766:A1 *832:EN 2.22657e-05
4 *766:A1 *834:EN 0
5 *650:I *766:A1 4.52262e-05
6 *850:A1 *766:A1 3.56356e-05
*RES
1 *765:Z *766:A1 12.192 
*END

*D_NET *192 0.00140696
*CONN
*I *770:A1 I *D gf180mcu_fd_sc_mcu7t5v0__or2_2
*I *769:Z O *D gf180mcu_fd_sc_mcu7t5v0__clkbuf_1
*CAP
1 *770:A1 0.000244425
2 *769:Z 0.000244425
3 *770:A1 *770:A2 1.5015e-05
4 *770:A1 *776:I 0.000343765
5 *650:I *770:A1 0.000203687
6 *9:9 *770:A1 0.000139346
7 *52:14 *770:A1 0.000134113
8 *54:16 *770:A1 3.37485e-05
9 *54:36 *770:A1 4.84399e-05
*RES
1 *769:Z *770:A1 21.192 
*END

*D_NET *193 0.000613684
*CONN
*I *758:EN I *D gf180mcu_fd_sc_mcu7t5v0__invz_2
*I *766:Z O *D gf180mcu_fd_sc_mcu7t5v0__or2_2
*CAP
1 *758:EN 0.000174823
2 *766:Z 0.000174823
3 *758:EN *832:I 7.79995e-05
4 *649:I *758:EN 4.41408e-05
5 *30:29 *758:EN 0.000141897
*RES
1 *766:Z *758:EN 10.672 
*END

*D_NET *194 0.00147132
*CONN
*I *759:EN I *D gf180mcu_fd_sc_mcu7t5v0__invz_2
*I *770:Z O *D gf180mcu_fd_sc_mcu7t5v0__or2_2
*CAP
1 *759:EN 0.000305779
2 *770:Z 0.000305779
3 *759:EN *757:I 0.00018365
4 *759:EN *760:I 4.07337e-05
5 *759:EN *761:I 0.000307983
6 *759:EN *205:16 6.43234e-05
7 *759:I *759:EN 5.13352e-06
8 *762:I *759:EN 4.61878e-05
9 *53:10 *759:EN 0.000144931
10 *56:22 *759:EN 6.68223e-05
*RES
1 *770:Z *759:EN 21.04 
*END

*D_NET *195 0.000808624
*CONN
*I *765:I I *D gf180mcu_fd_sc_mcu7t5v0__clkbuf_1
*I *764:Z O *D gf180mcu_fd_sc_mcu7t5v0__clkbuf_1
*CAP
1 *765:I 9.10286e-05
2 *764:Z 9.10286e-05
3 *765:I *265:10 8.81325e-07
4 *652:D *765:I 0.000206341
5 *828:I *765:I 0
6 *30:29 *765:I 0.000419344
*RES
1 *764:Z *765:I 19.14 
*END

*D_NET *196 0.000974233
*CONN
*I *769:I I *D gf180mcu_fd_sc_mcu7t5v0__clkbuf_1
*I *768:Z O *D gf180mcu_fd_sc_mcu7t5v0__clkbuf_1
*CAP
1 *769:I 0.00031795
2 *768:Z 0.00031795
3 *769:I *774:I 1.44832e-05
4 *769:I *775:I 4.45507e-05
5 *769:I *776:I 0
6 *54:16 *769:I 0.000263845
7 *54:36 *769:I 1.54542e-05
*RES
1 *768:Z *769:I 11.432 
*END

*D_NET *197 0.00416289
*CONN
*I *766:A2 I *D gf180mcu_fd_sc_mcu7t5v0__or2_2
*I *771:I I *D gf180mcu_fd_sc_mcu7t5v0__inv_1
*I *764:I I *D gf180mcu_fd_sc_mcu7t5v0__clkbuf_1
*I *763:Q O *D gf180mcu_fd_sc_mcu7t5v0__latrnq_1
*CAP
1 *766:A2 0.000159405
2 *771:I 5.52876e-05
3 *764:I 7.03899e-05
4 *763:Q 0.000167967
5 *197:23 0.000396967
6 *197:10 0.000420631
7 *766:A2 *772:I 0.000213918
8 *766:A2 *773:I 0.000166035
9 *766:A2 *205:16 3.28611e-05
10 *771:I *772:I 0.000254112
11 *324:I *766:A2 0.000428666
12 *324:I *197:10 0.000124246
13 *324:I *197:23 0.000419043
14 *597:I *766:A2 0.000197186
15 *597:I *197:23 0.000412174
16 *850:A1 *771:I 2.6126e-05
17 *12:13 *764:I 7.38041e-06
18 *12:13 *771:I 0.000406056
19 *12:13 *197:23 9.06578e-06
20 *30:29 *766:A2 5.97259e-05
21 *30:29 *197:10 8.56363e-05
22 *44:8 *197:23 5.76373e-06
23 *54:16 *771:I 4.4243e-05
*RES
1 *763:Q *197:10 14.792 
2 *197:10 *764:I 4.88 
3 *197:10 *197:23 6.324 
4 *197:23 *771:I 10.14 
5 *197:23 *766:A2 11.812 
*END

*D_NET *198 0.00432631
*CONN
*I *770:A2 I *D gf180mcu_fd_sc_mcu7t5v0__or2_2
*I *768:I I *D gf180mcu_fd_sc_mcu7t5v0__clkbuf_1
*I *774:I I *D gf180mcu_fd_sc_mcu7t5v0__inv_1
*I *767:Q O *D gf180mcu_fd_sc_mcu7t5v0__latrnq_1
*CAP
1 *770:A2 0.00014029
2 *768:I 0
3 *774:I 0.000157669
4 *767:Q 0.000304476
5 *198:23 0.000204537
6 *198:8 0.000526392
7 *770:A2 *775:I 0.000222333
8 *770:A2 *776:I 5.76749e-06
9 *770:A2 *205:16 0.00031573
10 *774:I *775:I 0.000663513
11 *198:8 *205:16 0.000818801
12 *198:23 *775:I 0.000331102
13 *198:23 *205:16 0.000186709
14 *599:EN *198:8 0
15 *650:I *770:A2 8.55327e-05
16 *769:I *774:I 1.44832e-05
17 *770:A1 *770:A2 1.5015e-05
18 *9:9 *770:A2 0
19 *9:9 *774:I 0
20 *9:9 *198:8 0
21 *9:9 *198:23 0
22 *12:13 *774:I 0.000333958
*RES
1 *767:Q *198:8 11.356 
2 *198:8 *774:I 11.508 
3 *198:8 *198:23 1.14 
4 *198:23 *768:I 9 
5 *198:23 *770:A2 10.976 
*END

*D_NET *199 0.00112428
*CONN
*I *772:I I *D gf180mcu_fd_sc_mcu7t5v0__clkbuf_1
*I *771:ZN O *D gf180mcu_fd_sc_mcu7t5v0__inv_1
*CAP
1 *772:I 8.78072e-05
2 *771:ZN 8.78072e-05
3 *772:I *205:16 0.000195532
4 *597:I *772:I 0.00014967
5 *766:A2 *772:I 0.000213918
6 *771:I *772:I 0.000254112
7 *54:16 *772:I 0.000135436
*RES
1 *771:ZN *772:I 20.128 
*END

*D_NET *200 0.00217868
*CONN
*I *775:I I *D gf180mcu_fd_sc_mcu7t5v0__clkbuf_1
*I *774:ZN O *D gf180mcu_fd_sc_mcu7t5v0__inv_1
*CAP
1 *775:I 0.000170782
2 *774:ZN 0.000170782
3 *769:I *775:I 4.45507e-05
4 *770:A2 *775:I 0.000222333
5 *774:I *775:I 0.000663513
6 *9:9 *775:I 0
7 *12:13 *775:I 2.05156e-05
8 *54:16 *775:I 0.000555104
9 *198:23 *775:I 0.000331102
*RES
1 *774:ZN *775:I 21.192 
*END

*D_NET *201 0.000787111
*CONN
*I *773:I I *D gf180mcu_fd_sc_mcu7t5v0__clkbuf_1
*I *772:Z O *D gf180mcu_fd_sc_mcu7t5v0__clkbuf_1
*CAP
1 *773:I 0.000169075
2 *772:Z 0.000169075
3 *773:I *205:16 0.000282926
4 *766:A2 *773:I 0.000166035
5 *30:29 *773:I 0
*RES
1 *772:Z *773:I 20.052 
*END

*D_NET *202 0.00158576
*CONN
*I *776:I I *D gf180mcu_fd_sc_mcu7t5v0__clkbuf_1
*I *775:Z O *D gf180mcu_fd_sc_mcu7t5v0__clkbuf_1
*CAP
1 *776:I 0.00041689
2 *775:Z 0.00041689
3 *616:A1 *776:I 0
4 *769:I *776:I 0
5 *770:A1 *776:I 0.000343765
6 *770:A2 *776:I 5.76749e-06
7 *9:9 *776:I 0.000300828
8 *54:36 *776:I 0.000101621
*RES
1 *775:Z *776:I 21.496 
*END

*D_NET *203 0.000443036
*CONN
*I *760:EN I *D gf180mcu_fd_sc_mcu7t5v0__invz_8
*I *773:Z O *D gf180mcu_fd_sc_mcu7t5v0__clkbuf_1
*CAP
1 *760:EN 0.000127691
2 *773:Z 0.000127691
3 *760:EN *205:16 0.000128035
4 *56:22 *760:EN 3.73535e-05
5 *101:34 *760:EN 2.22657e-05
*RES
1 *773:Z *760:EN 19.216 
*END

*D_NET *204 0.000339309
*CONN
*I *761:EN I *D gf180mcu_fd_sc_mcu7t5v0__invz_4
*I *776:Z O *D gf180mcu_fd_sc_mcu7t5v0__clkbuf_1
*CAP
1 *761:EN 5.61622e-05
2 *776:Z 5.61622e-05
3 *649:I *761:EN 0.000199496
4 *30:29 *761:EN 2.74886e-05
*RES
1 *776:Z *761:EN 9.76 
*END

*D_NET *205 0.00698718
*CONN
*I *767:E I *D gf180mcu_fd_sc_mcu7t5v0__latrnq_1
*I *763:E I *D gf180mcu_fd_sc_mcu7t5v0__latrnq_1
*I *777:Z O *D gf180mcu_fd_sc_mcu7t5v0__xor2_1
*CAP
1 *767:E 0
2 *763:E 7.48419e-05
3 *777:Z 0.00119292
4 *205:16 0.00126776
5 *205:16 *757:I 3.45906e-05
6 *205:16 *760:I 0.000121469
7 *205:16 *837:I 1.64645e-05
8 *301:I *763:E 0.000216684
9 *597:I *205:16 8.4373e-05
10 *599:EN *205:16 0
11 *611:I *763:E 0.000193942
12 *611:I *205:16 0.000313101
13 *758:I *205:16 0.000498355
14 *759:EN *205:16 6.43234e-05
15 *760:EN *205:16 0.000128035
16 *763:D *763:E 8.55327e-05
17 *766:A2 *205:16 3.28611e-05
18 *770:A2 *205:16 0.00031573
19 *772:I *205:16 0.000195532
20 *773:I *205:16 0.000282926
21 *7:9 *763:E 3.00299e-05
22 *9:9 *205:16 0
23 *53:10 *205:16 0
24 *53:143 *763:E 0.000338864
25 *53:145 *763:E 0.00028423
26 *53:147 *763:E 0.000209093
27 *198:8 *205:16 0.000818801
28 *198:23 *205:16 0.000186709
*RES
1 *777:Z *205:16 25.508 
2 *205:16 *763:E 6.704 
3 *205:16 *767:E 4.5 
*END

*D_NET *206 0.00214
*CONN
*I *777:A2 I *D gf180mcu_fd_sc_mcu7t5v0__xor2_1
*I *755:Z O *D gf180mcu_fd_sc_mcu7t5v0__clkbuf_2
*CAP
1 *777:A2 0.0003542
2 *755:Z 0.0003542
3 *777:A2 *837:I 0.000145594
4 *777:A2 *839:A1 0.00118365
5 *698:E *777:A2 5.4531e-05
6 *708:A2 *777:A2 4.78265e-05
*RES
1 *755:Z *777:A2 13.18 
*END

*D_NET *207 0.00348431
*CONN
*I *761:I I *D gf180mcu_fd_sc_mcu7t5v0__invz_4
*I *760:I I *D gf180mcu_fd_sc_mcu7t5v0__invz_8
*I *757:I I *D gf180mcu_fd_sc_mcu7t5v0__clkbuf_1
*I *756:Z O *D gf180mcu_fd_sc_mcu7t5v0__clkbuf_2
*CAP
1 *761:I 0.000112545
2 *760:I 0.000209023
3 *757:I 0.000110035
4 *756:Z 0
5 *207:8 0.000338833
6 *207:4 0.00013232
7 *760:I *837:I 1.69506e-05
8 *758:I *757:I 0.000134113
9 *758:I *760:I 0.000110986
10 *759:EN *757:I 0.00018365
11 *759:EN *760:I 4.07337e-05
12 *759:EN *761:I 0.000307983
13 *762:I *757:I 8.45062e-05
14 *762:I *760:I 2.97354e-06
15 *14:17 *760:I 0.000432306
16 *30:29 *757:I 0.000438681
17 *53:10 *760:I 5.99167e-05
18 *53:10 *761:I 0.000184378
19 *56:22 *761:I 1.76797e-05
20 *56:22 *207:8 2.22758e-05
21 *101:34 *757:I 2.25184e-05
22 *101:34 *761:I 0.000328481
23 *101:34 *207:8 3.73627e-05
24 *205:16 *757:I 3.45906e-05
25 *205:16 *760:I 0.000121469
*RES
1 *756:Z *207:4 4.5 
2 *207:4 *207:8 4.728 
3 *207:8 *757:I 11.128 
4 *207:8 *760:I 11.432 
5 *207:4 *761:I 6.552 
*END

*D_NET *208 0.000262628
*CONN
*I *782:I I *D gf180mcu_fd_sc_mcu7t5v0__invz_2
*I *780:Z O *D gf180mcu_fd_sc_mcu7t5v0__clkbuf_1
*CAP
1 *782:I 0.000130029
2 *780:Z 0.000130029
3 *782:I *780:I 2.57058e-06
*RES
1 *780:Z *782:I 9.912 
*END

*D_NET *209 0.00174418
*CONN
*I *785:I I *D gf180mcu_fd_sc_mcu7t5v0__clkinv_2
*I *782:ZN O *D gf180mcu_fd_sc_mcu7t5v0__invz_2
*I *784:ZN O *D gf180mcu_fd_sc_mcu7t5v0__invz_4
*CAP
1 *785:I 3.25727e-05
2 *782:ZN 0.000439101
3 *784:ZN 0
4 *209:4 0.000471674
5 *782:ZN *780:I 0
6 *782:ZN *781:I 3.45793e-05
7 *782:ZN *784:EN 6.07523e-05
8 *782:ZN *799:I 7.98685e-05
9 *782:ZN *227:20 0
10 *785:I *797:I 0.000467288
11 *631:I *785:I 0.000158342
*RES
1 *784:ZN *209:4 4.5 
2 *209:4 *782:ZN 7.16 
3 *209:4 *785:I 14.64 
*END

*D_NET *210 0.000801402
*CONN
*I *781:I I *D gf180mcu_fd_sc_mcu7t5v0__invz_2
*I *785:ZN O *D gf180mcu_fd_sc_mcu7t5v0__clkinv_2
*CAP
1 *781:I 0.000333309
2 *785:ZN 0.000333309
3 *752:I *781:I 5.76373e-06
4 *782:ZN *781:I 3.45793e-05
5 *826:I *781:I 0
6 *78:23 *781:I 9.44416e-05
*RES
1 *785:ZN *781:I 11.128 
*END

*D_NET *211 0.00197597
*CONN
*I *789:A1 I *D gf180mcu_fd_sc_mcu7t5v0__or2_2
*I *788:Z O *D gf180mcu_fd_sc_mcu7t5v0__clkbuf_1
*CAP
1 *789:A1 0.000469587
2 *788:Z 0.000469587
3 *789:A1 *787:I 3.73535e-05
4 *789:A1 *788:I 0.000316686
5 *789:A1 *789:A2 0.000310976
6 *789:A1 *791:I 0.000201948
7 *789:A1 *793:A1 1.2339e-05
8 *789:A1 *794:I 8.81496e-06
9 *789:A1 *795:I 0
10 *789:A1 *217:6 5.76373e-06
11 *789:A1 *218:20 0.000142918
*RES
1 *788:Z *789:A1 13.56 
*END

*D_NET *212 0.000529726
*CONN
*I *793:A1 I *D gf180mcu_fd_sc_mcu7t5v0__or2_2
*I *792:Z O *D gf180mcu_fd_sc_mcu7t5v0__clkbuf_1
*CAP
1 *793:A1 0.000142275
2 *792:Z 0.000142275
3 *793:A1 *791:I 0.000186933
4 *793:A1 *794:I 3.08902e-05
5 *793:A1 *218:20 1.5015e-05
6 *789:A1 *793:A1 1.2339e-05
*RES
1 *792:Z *793:A1 10.292 
*END

*D_NET *213 0.000371772
*CONN
*I *781:EN I *D gf180mcu_fd_sc_mcu7t5v0__invz_2
*I *789:Z O *D gf180mcu_fd_sc_mcu7t5v0__or2_2
*CAP
1 *781:EN 0.000185886
2 *789:Z 0.000185886
3 *781:EN *783:I 0
*RES
1 *789:Z *781:EN 10.292 
*END

*D_NET *214 0.00105207
*CONN
*I *782:EN I *D gf180mcu_fd_sc_mcu7t5v0__invz_2
*I *793:Z O *D gf180mcu_fd_sc_mcu7t5v0__or2_2
*CAP
1 *782:EN 0.000274462
2 *793:Z 0.000274462
3 *782:EN *788:I 3.08777e-05
4 *782:EN *799:I 4.97712e-06
5 *626:I *782:EN 0.000467288
6 *635:I *782:EN 0
*RES
1 *793:Z *782:EN 20.28 
*END

*D_NET *215 0.000967392
*CONN
*I *788:I I *D gf180mcu_fd_sc_mcu7t5v0__clkbuf_1
*I *787:Z O *D gf180mcu_fd_sc_mcu7t5v0__clkbuf_1
*CAP
1 *788:I 0.000246172
2 *787:Z 0.000246172
3 *788:I *218:20 0.000127484
4 *782:EN *788:I 3.08777e-05
5 *789:A1 *788:I 0.000316686
*RES
1 *787:Z *788:I 11.128 
*END

*D_NET *216 0.000190155
*CONN
*I *792:I I *D gf180mcu_fd_sc_mcu7t5v0__clkbuf_1
*I *791:Z O *D gf180mcu_fd_sc_mcu7t5v0__clkbuf_1
*CAP
1 *792:I 9.50776e-05
2 *791:Z 9.50776e-05
*RES
1 *791:Z *792:I 9.532 
*END

*D_NET *217 0.00183657
*CONN
*I *789:A2 I *D gf180mcu_fd_sc_mcu7t5v0__or2_2
*I *787:I I *D gf180mcu_fd_sc_mcu7t5v0__clkbuf_1
*I *794:I I *D gf180mcu_fd_sc_mcu7t5v0__inv_1
*I *786:Q O *D gf180mcu_fd_sc_mcu7t5v0__latrnq_1
*CAP
1 *789:A2 7.62024e-05
2 *787:I 0.000166069
3 *794:I 0.000165664
4 *786:Q 5.97381e-05
5 *217:6 0.000315269
6 *794:I *795:I 0.00020216
7 *794:I *218:20 3.2501e-05
8 *217:6 *795:I 0.000425168
9 *789:A1 *787:I 3.73535e-05
10 *789:A1 *789:A2 0.000310976
11 *789:A1 *794:I 8.81496e-06
12 *789:A1 *217:6 5.76373e-06
13 *793:A1 *794:I 3.08902e-05
*RES
1 *786:Q *217:6 5.64 
2 *217:6 *794:I 5.868 
3 *217:6 *787:I 5.26 
4 *787:I *789:A2 10.216 
*END

*D_NET *218 0.00646697
*CONN
*I *797:I I *D gf180mcu_fd_sc_mcu7t5v0__inv_1
*I *791:I I *D gf180mcu_fd_sc_mcu7t5v0__clkbuf_1
*I *793:A2 I *D gf180mcu_fd_sc_mcu7t5v0__or2_2
*I *790:Q O *D gf180mcu_fd_sc_mcu7t5v0__latrnq_1
*CAP
1 *797:I 0.000350234
2 *791:I 0.000251776
3 *793:A2 0
4 *790:Q 6.11565e-05
5 *218:20 0.000482482
6 *218:8 0.000642097
7 *797:I *784:EN 0.000389489
8 *218:20 *780:I 0
9 *218:20 *227:20 0
10 *626:I *791:I 0
11 *628:A1 *797:I 0.000190862
12 *630:I *797:I 0.000284343
13 *631:I *797:I 0.000173961
14 *631:I *218:8 0.000100143
15 *631:I *218:20 0.000142185
16 *634:I *797:I 0
17 *634:I *218:20 0.000311663
18 *635:I *791:I 0.000274115
19 *785:I *797:I 0.000467288
20 *788:I *218:20 0.000127484
21 *789:A1 *791:I 0.000201948
22 *789:A1 *218:20 0.000142918
23 *793:A1 *791:I 0.000186933
24 *793:A1 *218:20 1.5015e-05
25 *794:I *218:20 3.2501e-05
26 *78:23 *797:I 0.00120225
27 *78:23 *218:8 0.000436129
*RES
1 *790:Q *218:8 10.14 
2 *218:8 *218:20 15.856 
3 *218:20 *793:A2 4.5 
4 *218:20 *791:I 16.236 
5 *218:8 *797:I 15.232 
*END

*D_NET *219 0.00161686
*CONN
*I *795:I I *D gf180mcu_fd_sc_mcu7t5v0__clkbuf_1
*I *794:ZN O *D gf180mcu_fd_sc_mcu7t5v0__inv_1
*CAP
1 *795:I 0.000460642
2 *794:ZN 0.000460642
3 *795:I *796:I 5.76373e-06
4 *795:I *879:I 5.76373e-06
5 *789:A1 *795:I 0
6 *794:I *795:I 0.00020216
7 *76:66 *795:I 5.67242e-05
8 *217:6 *795:I 0.000425168
*RES
1 *794:ZN *795:I 12.42 
*END

*D_NET *220 0.00314559
*CONN
*I *798:I I *D gf180mcu_fd_sc_mcu7t5v0__clkbuf_1
*I *797:ZN O *D gf180mcu_fd_sc_mcu7t5v0__inv_1
*CAP
1 *798:I 0.000469791
2 *797:ZN 0.000469791
3 *798:I *799:I 0.000335667
4 *626:I *798:I 0.00172921
5 *628:A1 *798:I 0.000109369
6 *635:I *798:I 0
7 *826:I *798:I 3.17634e-05
*RES
1 *797:ZN *798:I 23.168 
*END

*D_NET *221 0.000537693
*CONN
*I *796:I I *D gf180mcu_fd_sc_mcu7t5v0__clkbuf_1
*I *795:Z O *D gf180mcu_fd_sc_mcu7t5v0__clkbuf_1
*CAP
1 *796:I 0.000221907
2 *795:Z 0.000221907
3 *796:I *783:EN 8.81157e-05
4 *796:I *879:I 0
5 *795:I *796:I 5.76373e-06
*RES
1 *795:Z *796:I 10.52 
*END

*D_NET *222 0.000725594
*CONN
*I *799:I I *D gf180mcu_fd_sc_mcu7t5v0__clkbuf_1
*I *798:Z O *D gf180mcu_fd_sc_mcu7t5v0__clkbuf_1
*CAP
1 *799:I 0.00015254
2 *798:Z 0.00015254
3 *635:I *799:I 0
4 *782:EN *799:I 4.97712e-06
5 *782:ZN *799:I 7.98685e-05
6 *798:I *799:I 0.000335667
*RES
1 *798:Z *799:I 19.444 
*END

*D_NET *223 0.000503135
*CONN
*I *783:EN I *D gf180mcu_fd_sc_mcu7t5v0__invz_8
*I *796:Z O *D gf180mcu_fd_sc_mcu7t5v0__clkbuf_1
*CAP
1 *783:EN 0.000138732
2 *796:Z 0.000138732
3 *783:EN *783:I 0.000137555
4 *796:I *783:EN 8.81157e-05
*RES
1 *796:Z *783:EN 10.292 
*END

*D_NET *224 0.00121622
*CONN
*I *784:EN I *D gf180mcu_fd_sc_mcu7t5v0__invz_4
*I *799:Z O *D gf180mcu_fd_sc_mcu7t5v0__clkbuf_1
*CAP
1 *784:EN 0.000172657
2 *799:Z 0.000172657
3 *784:EN *780:I 3.53914e-05
4 *784:EN *227:20 2.9378e-06
5 *631:I *784:EN 0.000382331
6 *782:ZN *784:EN 6.07523e-05
7 *797:I *784:EN 0.000389489
*RES
1 *799:Z *784:EN 20.736 
*END

*D_NET *225 0.00117793
*CONN
*I *790:E I *D gf180mcu_fd_sc_mcu7t5v0__latrnq_1
*I *786:E I *D gf180mcu_fd_sc_mcu7t5v0__latrnq_1
*I *800:Z O *D gf180mcu_fd_sc_mcu7t5v0__xor2_1
*CAP
1 *790:E 0.000161577
2 *786:E 0.000243598
3 *800:Z 8.20205e-05
4 *786:E *800:A2 6.39906e-05
5 *790:E *800:A2 4.10312e-05
6 *790:RN *790:E 0.000298454
7 *30:29 *786:E 6.39906e-05
8 *53:231 *790:E 0.000147305
9 *76:66 *790:E 7.59646e-05
*RES
1 *800:Z *786:E 9.684 
2 *786:E *790:E 10.672 
*END

*D_NET *226 0.0019789
*CONN
*I *800:A2 I *D gf180mcu_fd_sc_mcu7t5v0__xor2_1
*I *778:Z O *D gf180mcu_fd_sc_mcu7t5v0__clkbuf_2
*CAP
1 *800:A2 0.000534905
2 *778:Z 0.000534905
3 *778:I *800:A2 0.000385609
4 *786:E *800:A2 6.39906e-05
5 *790:E *800:A2 4.10312e-05
6 *790:RN *800:A2 0.000111509
7 *800:A1 *800:A2 8.55327e-05
8 *30:29 *800:A2 1.0115e-05
9 *53:231 *800:A2 0.000211303
10 *76:66 *800:A2 0
*RES
1 *778:Z *800:A2 13.56 
*END

*D_NET *227 0.00444734
*CONN
*I *780:I I *D gf180mcu_fd_sc_mcu7t5v0__clkbuf_1
*I *784:I I *D gf180mcu_fd_sc_mcu7t5v0__invz_4
*I *783:I I *D gf180mcu_fd_sc_mcu7t5v0__invz_8
*I *779:Z O *D gf180mcu_fd_sc_mcu7t5v0__clkbuf_2
*CAP
1 *780:I 0.000438108
2 *784:I 0
3 *783:I 0.0009525
4 *779:Z 0.000529053
5 *227:20 0.000861555
6 *783:I *882:I 2.23598e-06
7 clockp[1] *780:I 5.14116e-06
8 *314:I *783:I 0
9 *631:I *780:I 0.000427113
10 *634:I *780:I 0.000857631
11 *744:E *783:I 0.000136871
12 *745:I *783:I 0
13 *781:EN *783:I 0
14 *782:I *780:I 2.57058e-06
15 *782:ZN *780:I 0
16 *782:ZN *227:20 0
17 *783:EN *783:I 0.000137555
18 *784:EN *780:I 3.53914e-05
19 *784:EN *227:20 2.9378e-06
20 *827:I *780:I 5.86759e-05
21 *78:8 *227:20 0
22 *78:23 *227:20 0
23 *177:8 *783:I 0
24 *218:20 *780:I 0
25 *218:20 *227:20 0
*RES
1 *779:Z *783:I 12.648 
2 *783:I *227:20 6.704 
3 *227:20 *784:I 4.5 
4 *227:20 *780:I 17.984 
*END

*D_NET *228 0.000530908
*CONN
*I *805:I I *D gf180mcu_fd_sc_mcu7t5v0__invz_2
*I *803:Z O *D gf180mcu_fd_sc_mcu7t5v0__clkbuf_1
*CAP
1 *805:I 0.000234589
2 *803:Z 0.000234589
3 *805:I *805:ZN 5.86674e-06
4 *637:I *805:I 2.79319e-05
5 *638:I *805:I 2.79319e-05
*RES
1 *803:Z *805:I 10.368 
*END

*D_NET *229 0.000960399
*CONN
*I *805:ZN O *D gf180mcu_fd_sc_mcu7t5v0__invz_2
*I *808:I I *D gf180mcu_fd_sc_mcu7t5v0__clkinv_2
*I *807:ZN O *D gf180mcu_fd_sc_mcu7t5v0__invz_4
*CAP
1 *805:ZN 0.000204944
2 *808:I 0
3 *807:ZN 0.000249588
4 *229:8 0.000454531
5 *229:8 *804:EN 0
6 *229:8 *807:I 0
7 *618:I *229:8 0
8 *636:I *805:ZN 1.73591e-05
9 *636:I *229:8 8.01724e-06
10 *637:I *805:ZN 1.49066e-06
11 *805:I *805:ZN 5.86674e-06
12 *887:D *229:8 0
13 *23:15 *805:ZN 1.78575e-05
14 *23:15 *229:8 7.45328e-07
*RES
1 *807:ZN *229:8 5.868 
2 *229:8 *808:I 4.5 
3 *229:8 *805:ZN 5.716 
*END

*D_NET *230 0.001912
*CONN
*I *804:I I *D gf180mcu_fd_sc_mcu7t5v0__invz_2
*I *808:ZN O *D gf180mcu_fd_sc_mcu7t5v0__clkinv_2
*CAP
1 *804:I 0.000278487
2 *808:ZN 0.000278487
3 *804:I *816:A1 0.000150066
4 *804:I *886:E 0.000106097
5 *804:I *887:E 0.000281216
6 *618:I *804:I 1.65795e-06
7 *887:D *804:I 0.00042303
8 *889:A1 *804:I 0.000209639
9 *16:7 *804:I 0.000130746
10 *53:108 *804:I 5.25778e-05
*RES
1 *808:ZN *804:I 22.104 
*END

*D_NET *231 0.0022685
*CONN
*I *812:A1 I *D gf180mcu_fd_sc_mcu7t5v0__or2_2
*I *811:Z O *D gf180mcu_fd_sc_mcu7t5v0__clkbuf_1
*CAP
1 *812:A1 0.000247312
2 *811:Z 0.000247312
3 *812:A1 *805:EN 1.66527e-05
4 *812:A1 *806:I 0.000431543
5 *812:A1 *807:I 1.09653e-05
6 *812:A1 *810:I 0.000103808
7 *812:A1 *816:A1 8.30371e-05
8 *812:A1 *818:I 0.000386628
9 *812:A1 *820:I 0.000261801
10 *603:I *812:A1 0.000424397
11 *16:7 *812:A1 5.50406e-05
*RES
1 *811:Z *812:A1 22.104 
*END

*D_NET *232 0.0084797
*CONN
*I *816:A1 I *D gf180mcu_fd_sc_mcu7t5v0__or2_2
*I *815:Z O *D gf180mcu_fd_sc_mcu7t5v0__clkbuf_1
*CAP
1 *816:A1 0.00232949
2 *815:Z 0.00232949
3 *816:A1 *805:EN 0.000260718
4 *816:A1 *807:EN 9.26705e-05
5 *816:A1 *810:I 8.55242e-05
6 *816:A1 *814:I 0
7 *816:A1 *815:I 0
8 *816:A1 *818:I 2.69281e-06
9 *816:A1 *821:I 3.24312e-05
10 *816:A1 *878:I 0.000532414
11 *816:A1 *879:EN 0.000151728
12 *816:A1 *879:ZN 5.31711e-05
13 *816:A1 *882:I 4.29924e-05
14 *636:I *816:A1 3.1938e-05
15 *736:EN *816:A1 0.000117762
16 *750:I *816:A1 0.000158886
17 *751:I *816:A1 0.000230129
18 *752:I *816:A1 0.000333372
19 *804:I *816:A1 0.000150066
20 *812:A1 *816:A1 8.30371e-05
21 *826:I *816:A1 0.000653985
22 *877:I *816:A1 7.26713e-06
23 *887:D *816:A1 0.000390043
24 *16:7 *816:A1 0
25 *19:13 *816:A1 0.000286683
26 *53:231 *816:A1 6.03906e-05
27 *76:72 *816:A1 1.35372e-05
28 *177:12 *816:A1 4.92793e-05
*RES
1 *815:Z *816:A1 36.924 
*END

*D_NET *233 0.000422066
*CONN
*I *804:EN I *D gf180mcu_fd_sc_mcu7t5v0__invz_2
*I *812:Z O *D gf180mcu_fd_sc_mcu7t5v0__or2_2
*CAP
1 *804:EN 0.000211033
2 *812:Z 0.000211033
3 *229:8 *804:EN 0
*RES
1 *812:Z *804:EN 10.292 
*END

*D_NET *234 0.0013729
*CONN
*I *805:EN I *D gf180mcu_fd_sc_mcu7t5v0__invz_2
*I *816:Z O *D gf180mcu_fd_sc_mcu7t5v0__or2_2
*CAP
1 *805:EN 0.000135986
2 *816:Z 0.000135986
3 *805:EN *818:I 0.000300828
4 *805:EN *820:I 0.000104569
5 *802:I *805:EN 0.000300828
6 *812:A1 *805:EN 1.66527e-05
7 *816:A1 *805:EN 0.000260718
8 *19:13 *805:EN 0.000117335
*RES
1 *816:Z *805:EN 20.28 
*END

*D_NET *235 0.00230754
*CONN
*I *811:I I *D gf180mcu_fd_sc_mcu7t5v0__clkbuf_1
*I *810:Z O *D gf180mcu_fd_sc_mcu7t5v0__clkbuf_1
*CAP
1 *811:I 0.000318739
2 *810:Z 0.000318739
3 *811:I *807:EN 7.59351e-05
4 *811:I *813:E 0.000196471
5 *811:I *819:I 0.000605629
6 *811:I *821:I 0
7 *639:A1 *811:I 7.45328e-07
8 *813:D *811:I 0.000255714
9 *813:RN *811:I 0.000137785
10 *873:A1 *811:I 0
11 *21:17 *811:I 9.37296e-06
12 *53:121 *811:I 4.00221e-05
13 *53:209 *811:I 0.000348384
*RES
1 *810:Z *811:I 22.104 
*END

*D_NET *236 0.000712999
*CONN
*I *815:I I *D gf180mcu_fd_sc_mcu7t5v0__clkbuf_1
*I *814:Z O *D gf180mcu_fd_sc_mcu7t5v0__clkbuf_1
*CAP
1 *815:I 0.000348772
2 *814:Z 0.000348772
3 *753:I *815:I 1.54542e-05
4 *816:A1 *815:I 0
5 *826:I *815:I 0
*RES
1 *814:Z *815:I 11.052 
*END

*D_NET *237 0.00340032
*CONN
*I *810:I I *D gf180mcu_fd_sc_mcu7t5v0__clkbuf_1
*I *812:A2 I *D gf180mcu_fd_sc_mcu7t5v0__or2_2
*I *817:I I *D gf180mcu_fd_sc_mcu7t5v0__inv_1
*I *809:Q O *D gf180mcu_fd_sc_mcu7t5v0__latrnq_1
*CAP
1 *810:I 0.000448839
2 *812:A2 0.000104655
3 *817:I 0.000108248
4 *809:Q 0.000108248
5 *237:22 0.000553494
6 *810:I *807:EN 0.000376569
7 *810:I *818:I 2.19153e-05
8 *810:I *819:I 1.5015e-05
9 *817:I *818:I 0.000185185
10 *603:I *810:I 0.000310356
11 *603:I *812:A2 9.50296e-06
12 *604:I *810:I 0
13 *604:I *817:I 2.23477e-05
14 *802:I *810:I 0.000273038
15 *812:A1 *810:I 0.000103808
16 *816:A1 *810:I 8.55242e-05
17 *873:A1 *817:I 0.000103141
18 *14:17 *817:I 0.000226589
19 *15:27 *812:A2 9.1363e-05
20 *15:27 *817:I 0.0002451
21 *16:7 *812:A2 7.38372e-06
*RES
1 *809:Q *817:I 19.976 
2 *809:Q *237:22 4.5 
3 *237:22 *812:A2 14.184 
4 *237:22 *810:I 8.908 
*END

*D_NET *238 0.0104919
*CONN
*I *814:I I *D gf180mcu_fd_sc_mcu7t5v0__clkbuf_1
*I *816:A2 I *D gf180mcu_fd_sc_mcu7t5v0__or2_2
*I *820:I I *D gf180mcu_fd_sc_mcu7t5v0__inv_1
*I *813:Q O *D gf180mcu_fd_sc_mcu7t5v0__latrnq_1
*CAP
1 *814:I 0.00246428
2 *816:A2 0
3 *820:I 0.000325429
4 *813:Q 0
5 *238:12 0.00051995
6 *238:6 0.0026588
7 *814:I *819:I 6.47993e-06
8 *814:I *821:I 0.000236305
9 *820:I *807:EN 0.000140167
10 *238:12 *807:EN 0.000405332
11 *238:12 *819:I 1.78185e-05
12 *619:I *814:I 0.000165078
13 *628:A1 *814:I 0.000371381
14 *752:I *814:I 0
15 *753:I *814:I 0.00020703
16 *786:D *814:I 5.93437e-05
17 *805:EN *820:I 0.000104569
18 *812:A1 *820:I 0.000261801
19 *816:A1 *814:I 0
20 *873:A1 *820:I 0
21 *873:A1 *238:12 0
22 *877:I *814:I 7.56167e-05
23 *16:7 *820:I 2.76919e-05
24 *19:13 *820:I 5.41789e-05
25 *53:121 *814:I 0.00192574
26 *53:121 *238:12 0.000260718
27 *53:231 *814:I 8.73184e-05
28 *68:10 *814:I 0
29 *68:29 *814:I 0
30 *76:72 *814:I 0.000116891
*RES
1 *813:Q *238:6 9 
2 *238:6 *238:12 6.324 
3 *238:12 *820:I 16.236 
4 *238:12 *816:A2 4.5 
5 *238:6 *814:I 28 
*END

*D_NET *239 0.00405977
*CONN
*I *818:I I *D gf180mcu_fd_sc_mcu7t5v0__clkbuf_1
*I *817:ZN O *D gf180mcu_fd_sc_mcu7t5v0__inv_1
*CAP
1 *818:I 0.000472849
2 *817:ZN 0.000472849
3 *818:I *803:I 2.79381e-05
4 *818:I *807:EN 3.83835e-06
5 *818:I *807:I 9.935e-05
6 *604:I *818:I 0.000759269
7 *636:I *818:I 9.12593e-05
8 *802:I *818:I 0.000362056
9 *805:EN *818:I 0.000300828
10 *810:I *818:I 2.19153e-05
11 *812:A1 *818:I 0.000386628
12 *816:A1 *818:I 2.69281e-06
13 *817:I *818:I 0.000185185
14 *873:A1 *818:I 0.000186009
15 *16:7 *818:I 0.000687105
*RES
1 *817:ZN *818:I 24.916 
*END

*D_NET *240 0.00994629
*CONN
*I *821:I I *D gf180mcu_fd_sc_mcu7t5v0__clkbuf_1
*I *820:ZN O *D gf180mcu_fd_sc_mcu7t5v0__inv_1
*CAP
1 *821:I 0.00116472
2 *820:ZN 0.00116472
3 *821:I *813:E 0.00018344
4 *821:I *822:I 3.73627e-05
5 *821:I *888:I 9.88736e-06
6 *624:I *821:I 8.58009e-05
7 *811:I *821:I 0
8 *813:D *821:I 4.40785e-05
9 *814:I *821:I 0.000236305
10 *816:A1 *821:I 3.24312e-05
11 *825:I *821:I 0.000112454
12 *19:13 *821:I 0.00325446
13 *20:5 *821:I 3.16765e-06
14 *21:17 *821:I 0.000538593
15 *30:29 *821:I 0
16 *53:121 *821:I 0.00278757
17 *59:10 *821:I 0.000291299
18 *76:14 *821:I 0
*RES
1 *820:ZN *821:I 33.58 
*END

*D_NET *241 0.00368829
*CONN
*I *819:I I *D gf180mcu_fd_sc_mcu7t5v0__clkbuf_1
*I *818:Z O *D gf180mcu_fd_sc_mcu7t5v0__clkbuf_1
*CAP
1 *819:I 0.000518839
2 *818:Z 0.000518839
3 *819:I *806:EN 3.73535e-05
4 *819:I *807:EN 2.25107e-05
5 *819:I *813:E 0.000358342
6 *639:A1 *819:I 0.000149015
7 *802:I *819:I 0.000147305
8 *810:I *819:I 1.5015e-05
9 *811:I *819:I 0.000605629
10 *813:RN *819:I 0.00013063
11 *814:I *819:I 6.47993e-06
12 *873:A1 *819:I 0.000640548
13 *53:121 *819:I 0
14 *53:209 *819:I 0.000431543
15 *68:10 *819:I 8.8425e-05
16 *238:12 *819:I 1.78185e-05
*RES
1 *818:Z *819:I 24.46 
*END

*D_NET *242 0.00485423
*CONN
*I *822:I I *D gf180mcu_fd_sc_mcu7t5v0__clkbuf_1
*I *821:Z O *D gf180mcu_fd_sc_mcu7t5v0__clkbuf_1
*CAP
1 *822:I 0.000408797
2 *821:Z 0.000408797
3 *822:I *807:EN 2.96621e-05
4 clockp[0] *822:I 0.00107966
5 *620:I *822:I 0.000285856
6 *624:I *822:I 4.58601e-06
7 *635:I *822:I 0.000147941
8 *639:A2 *822:I 4.58601e-06
9 *821:I *822:I 3.73627e-05
10 *873:A1 *822:I 3.83835e-06
11 *23:15 *822:I 0.000275053
12 *76:14 *822:I 0.000135628
13 *76:27 *822:I 0.00203246
*RES
1 *821:Z *822:I 25.676 
*END

*D_NET *243 0.00204326
*CONN
*I *806:EN I *D gf180mcu_fd_sc_mcu7t5v0__invz_8
*I *819:Z O *D gf180mcu_fd_sc_mcu7t5v0__clkbuf_1
*CAP
1 *806:EN 0.000258139
2 *819:Z 0.000258139
3 *806:EN *813:E 9.58397e-05
4 *806:EN *245:12 0.000505665
5 *607:I *806:EN 2.6126e-05
6 *613:I *806:EN 0
7 *819:I *806:EN 3.73535e-05
8 *873:A1 *806:EN 0.000379805
9 *45:23 *806:EN 0
10 *53:135 *806:EN 0.000482193
*RES
1 *819:Z *806:EN 21.648 
*END

*D_NET *244 0.00331606
*CONN
*I *807:EN I *D gf180mcu_fd_sc_mcu7t5v0__invz_4
*I *822:Z O *D gf180mcu_fd_sc_mcu7t5v0__clkbuf_1
*CAP
1 *807:EN 0.000880729
2 *822:Z 0.000880729
3 *304:I *807:EN 0.000173764
4 *604:I *807:EN 8.81341e-06
5 *631:I *807:EN 1.49066e-06
6 *632:A1 *807:EN 0
7 *639:A2 *807:EN 0.000133754
8 *802:I *807:EN 0
9 *810:I *807:EN 0.000376569
10 *811:I *807:EN 7.59351e-05
11 *816:A1 *807:EN 9.26705e-05
12 *818:I *807:EN 3.83835e-06
13 *819:I *807:EN 2.25107e-05
14 *820:I *807:EN 0.000140167
15 *822:I *807:EN 2.96621e-05
16 *873:A1 *807:EN 0
17 *67:8 *807:EN 3.52649e-05
18 *68:10 *807:EN 5.48351e-05
19 *238:12 *807:EN 0.000405332
*RES
1 *822:Z *807:EN 16.068 
*END

*D_NET *245 0.00629058
*CONN
*I *813:E I *D gf180mcu_fd_sc_mcu7t5v0__latrnq_1
*I *809:E I *D gf180mcu_fd_sc_mcu7t5v0__latrnq_1
*I *823:Z O *D gf180mcu_fd_sc_mcu7t5v0__xor2_1
*CAP
1 *813:E 0.00036659
2 *809:E 0
3 *823:Z 0.000762161
4 *245:12 0.00112875
5 *608:I *245:12 2.6126e-05
6 *613:I *245:12 0
7 *806:EN *813:E 9.58397e-05
8 *806:EN *245:12 0.000505665
9 *809:D *813:E 2.05156e-05
10 *809:D *245:12 6.85937e-05
11 *811:I *813:E 0.000196471
12 *813:D *813:E 9.26705e-05
13 *819:I *813:E 0.000358342
14 *821:I *813:E 0.00018344
15 *12:13 *245:12 0
16 *14:17 *245:12 0.00222126
17 *21:17 *813:E 7.60436e-05
18 *45:23 *245:12 0
19 *53:95 *245:12 0
20 *53:135 *813:E 9.48587e-05
21 *53:135 *245:12 9.32538e-05
*RES
1 *823:Z *245:12 21.86 
2 *245:12 *809:E 4.5 
3 *245:12 *813:E 8.68 
*END

*D_NET *246 0.000545323
*CONN
*I *823:A2 I *D gf180mcu_fd_sc_mcu7t5v0__xor2_1
*I *801:Z O *D gf180mcu_fd_sc_mcu7t5v0__clkbuf_2
*CAP
1 *823:A2 0.000120268
2 *801:Z 0.000120268
3 *823:A1 *823:A2 3.07734e-05
4 *53:108 *823:A2 0.000219177
5 *101:14 *823:A2 5.48351e-05
*RES
1 *801:Z *823:A2 10.292 
*END

*D_NET *247 0.00328348
*CONN
*I *806:I I *D gf180mcu_fd_sc_mcu7t5v0__invz_8
*I *803:I I *D gf180mcu_fd_sc_mcu7t5v0__clkbuf_1
*I *807:I I *D gf180mcu_fd_sc_mcu7t5v0__invz_4
*I *802:Z O *D gf180mcu_fd_sc_mcu7t5v0__clkbuf_2
*CAP
1 *806:I 0.000258282
2 *803:I 0.000165247
3 *807:I 0.000487326
4 *802:Z 0
5 *247:4 0.000394291
6 *603:I *806:I 0.000173088
7 *636:I *803:I 0.000532127
8 *636:I *807:I 9.00225e-06
9 *637:I *803:I 0.000694318
10 *812:A1 *806:I 0.000431543
11 *812:A1 *807:I 1.09653e-05
12 *818:I *803:I 2.79381e-05
13 *818:I *807:I 9.935e-05
14 *229:8 *807:I 0
*RES
1 *802:Z *247:4 4.5 
2 *247:4 *807:I 6.02 
3 *247:4 *803:I 6.932 
4 *807:I *806:I 11.204 
*END

*D_NET *248 0.00143966
*CONN
*I *832:I I *D gf180mcu_fd_sc_mcu7t5v0__invz_2
*I *830:Z O *D gf180mcu_fd_sc_mcu7t5v0__clkbuf_1
*CAP
1 *832:I 0.000606273
2 *830:Z 0.000606273
3 *649:I *832:I 0.000149116
4 *758:EN *832:I 7.79995e-05
5 *101:34 *832:I 0
*RES
1 *830:Z *832:I 12.876 
*END

*D_NET *249 0.00273761
*CONN
*I *832:ZN O *D gf180mcu_fd_sc_mcu7t5v0__invz_2
*I *835:I I *D gf180mcu_fd_sc_mcu7t5v0__clkinv_2
*I *834:ZN O *D gf180mcu_fd_sc_mcu7t5v0__invz_4
*CAP
1 *832:ZN 2.35955e-05
2 *835:I 0.000163524
3 *834:ZN 2.50126e-05
4 *249:8 0.000212132
5 *835:I *832:EN 0.000204929
6 *835:I *837:I 0.00074376
7 *835:I *855:I 0.000154651
8 *249:8 *837:I 0.000206333
9 *249:8 *855:I 4.08125e-05
10 *649:I *832:ZN 0.000431535
11 *650:I *832:ZN 0.000431535
12 *652:D *835:I 5.87561e-06
13 *828:I *835:I 9.39206e-05
*RES
1 *834:ZN *249:8 9.532 
2 *249:8 *835:I 11.584 
3 *249:8 *832:ZN 10.14 
*END

*D_NET *250 0.00116138
*CONN
*I *831:I I *D gf180mcu_fd_sc_mcu7t5v0__invz_2
*I *835:ZN O *D gf180mcu_fd_sc_mcu7t5v0__clkinv_2
*CAP
1 *831:I 0.000146683
2 *835:ZN 0.000146683
3 *831:I *833:EN 2.5879e-05
4 *831:I *267:8 8.81341e-06
5 *652:D *831:I 2.96621e-05
6 *828:I *831:I 2.6126e-05
7 *27:21 *831:I 0.00045128
8 *123:10 *831:I 0.000132326
9 *123:12 *831:I 0.000193933
*RES
1 *835:ZN *831:I 19.9 
*END

*D_NET *251 0.0112333
*CONN
*I *839:A1 I *D gf180mcu_fd_sc_mcu7t5v0__or2_2
*I *838:Z O *D gf180mcu_fd_sc_mcu7t5v0__clkbuf_1
*CAP
1 *839:A1 0.00111985
2 *838:Z 0.00111985
3 *839:A1 *837:I 3.59448e-05
4 *839:A1 *838:I 3.81318e-05
5 *839:A1 *848:I 3.42838e-05
6 *839:A1 *853:I 0.000779135
7 *839:A1 *855:I 1.36711e-05
8 *839:A1 *855:ZN 0.000155728
9 *839:A1 *272:20 7.01325e-06
10 *839:A1 *287:12 0.000260276
11 *671:RN *839:A1 0.000332487
12 *685:A2 *839:A1 0.000107588
13 *694:E *839:A1 7.45328e-07
14 *694:RN *839:A1 0.000346476
15 *698:E *839:A1 2.57058e-06
16 *708:A1 *839:A1 0.000286425
17 *708:A2 *839:A1 0.000120373
18 *754:A1 *839:A1 5.64688e-05
19 *777:A2 *839:A1 0.00118365
20 *26:13 *839:A1 0.00299093
21 *27:21 *839:A1 8.54817e-05
22 *28:13 *839:A1 0.00206234
23 *53:252 *839:A1 9.39206e-05
*RES
1 *838:Z *839:A1 45.316 
*END

*D_NET *252 0.00372127
*CONN
*I *843:A1 I *D gf180mcu_fd_sc_mcu7t5v0__or2_2
*I *842:Z O *D gf180mcu_fd_sc_mcu7t5v0__clkbuf_1
*CAP
1 *843:A1 0.000734329
2 *842:Z 0.000734329
3 *843:A1 *831:EN 3.94662e-05
4 *843:A1 *848:I 3.96121e-05
5 *843:A1 *855:EN 5.14116e-06
6 *843:A1 *859:E 0.000109625
7 *843:A1 *864:I 8.06703e-05
8 *843:A1 *866:A1 0.000142801
9 *843:A1 *867:I 0
10 *843:A1 *873:A2 0.000206711
11 *843:A1 *272:20 0.000162265
12 *322:I *843:A1 4.05784e-05
13 *605:A1 *843:A1 1.81888e-05
14 *851:I *843:A1 0.000164594
15 *859:D *843:A1 3.73627e-05
16 *859:RN *843:A1 0.000484567
17 *13:13 *843:A1 0.00040564
18 *25:17 *843:A1 0.000315386
*RES
1 *842:Z *843:A1 25.828 
*END

*D_NET *253 0.00173921
*CONN
*I *831:EN I *D gf180mcu_fd_sc_mcu7t5v0__invz_2
*I *839:Z O *D gf180mcu_fd_sc_mcu7t5v0__or2_2
*CAP
1 *831:EN 0.000234495
2 *839:Z 0.000234495
3 *831:EN *848:I 0.000300828
4 *831:EN *272:20 0.000465652
5 *843:A1 *831:EN 3.94662e-05
6 *27:21 *831:EN 0.000464272
*RES
1 *839:Z *831:EN 20.66 
*END

*D_NET *254 0.00217351
*CONN
*I *832:EN I *D gf180mcu_fd_sc_mcu7t5v0__invz_2
*I *843:Z O *D gf180mcu_fd_sc_mcu7t5v0__or2_2
*CAP
1 *832:EN 0.000444898
2 *843:Z 0.000444898
3 *832:EN *834:EN 1.34504e-05
4 *832:EN *837:I 2.04096e-05
5 *832:EN *850:A2 2.2394e-05
6 *832:EN *855:I 0.000560057
7 *650:I *832:EN 0
8 *652:D *832:EN 0.000141739
9 *766:A1 *832:EN 2.22657e-05
10 *828:I *832:EN 0.000163233
11 *835:I *832:EN 0.000204929
12 *850:A1 *832:EN 0
13 *28:13 *832:EN 0.000135238
*RES
1 *843:Z *832:EN 22.256 
*END

*D_NET *255 0.00128742
*CONN
*I *838:I I *D gf180mcu_fd_sc_mcu7t5v0__clkbuf_1
*I *837:Z O *D gf180mcu_fd_sc_mcu7t5v0__clkbuf_1
*CAP
1 *838:I 0.000306412
2 *837:Z 0.000306412
3 *838:I *837:I 3.84221e-05
4 *838:I *874:A1 0
5 *838:I *874:A2 0
6 *313:I *838:I 8.28569e-05
7 *839:A1 *838:I 3.81318e-05
8 *28:13 *838:I 0.000515183
*RES
1 *837:Z *838:I 12.04 
*END

*D_NET *256 0.00133597
*CONN
*I *842:I I *D gf180mcu_fd_sc_mcu7t5v0__clkbuf_1
*I *841:Z O *D gf180mcu_fd_sc_mcu7t5v0__clkbuf_1
*CAP
1 *842:I 0.000151001
2 *841:Z 0.000151001
3 *842:I *841:I 4.21132e-05
4 *842:I *854:EN 0.000376901
5 *321:I *842:I 0.000396904
6 *851:I *842:I 0.000211477
7 *859:D *842:I 6.57222e-06
*RES
1 *841:Z *842:I 20.28 
*END

*D_NET *257 0.011147
*CONN
*I *837:I I *D gf180mcu_fd_sc_mcu7t5v0__clkbuf_1
*I *839:A2 I *D gf180mcu_fd_sc_mcu7t5v0__or2_2
*I *844:I I *D gf180mcu_fd_sc_mcu7t5v0__inv_1
*I *836:Q O *D gf180mcu_fd_sc_mcu7t5v0__latrnq_1
*CAP
1 *837:I 0.00201214
2 *839:A2 0.000238842
3 *844:I 0
4 *836:Q 0.000257345
5 *257:19 0.00228379
6 *257:12 0.000290148
7 *837:I *834:EN 0.000343551
8 *837:I *848:I 0
9 *837:I *850:A2 7.45328e-07
10 *837:I *855:I 0.00026884
11 *837:I *874:A2 2.9378e-06
12 *839:A2 *834:EN 0.000803603
13 *839:A2 *845:I 0.000356192
14 *839:A2 *855:I 7.4219e-06
15 *257:12 *855:I 2.96621e-05
16 *652:D *837:I 4.51132e-05
17 *698:D *837:I 1.87895e-05
18 *698:E *837:I 0.000372137
19 *731:A1 *837:I 0.000304112
20 *760:I *837:I 1.69506e-05
21 *777:A2 *837:I 0.000145594
22 *828:I *837:I 0.000199473
23 *832:EN *837:I 2.04096e-05
24 *835:I *837:I 0.00074376
25 *838:I *837:I 3.84221e-05
26 *839:A1 *837:I 3.59448e-05
27 *14:17 *837:I 1.02686e-05
28 *25:17 *839:A2 0.000517742
29 *26:13 *839:A2 0.000439361
30 *27:21 *257:12 0.000115095
31 *28:13 *257:12 0.000922098
32 *30:29 *837:I 0
33 *56:22 *837:I 0
34 *99:20 *837:I 2.40654e-06
35 *189:8 *837:I 8.13169e-05
36 *205:16 *837:I 1.64645e-05
37 *249:8 *837:I 0.000206333
*RES
1 *836:Q *257:12 16.236 
2 *257:12 *844:I 4.5 
3 *257:12 *257:19 0.228 
4 *257:19 *839:A2 17.148 
5 *257:19 *837:I 28.928 
*END

*D_NET *258 0.00565015
*CONN
*I *847:I I *D gf180mcu_fd_sc_mcu7t5v0__inv_1
*I *843:A2 I *D gf180mcu_fd_sc_mcu7t5v0__or2_2
*I *841:I I *D gf180mcu_fd_sc_mcu7t5v0__clkbuf_1
*I *840:Q O *D gf180mcu_fd_sc_mcu7t5v0__latrnq_1
*CAP
1 *847:I 0.000156194
2 *843:A2 7.1108e-05
3 *841:I 0.000691991
4 *840:Q 5.07226e-05
5 *258:10 0.000856576
6 *258:6 0.000300394
7 *841:I *854:EN 0.00032044
8 *841:I *862:A2 0.000571762
9 *841:I *867:I 0.000575184
10 *841:I *265:10 0.000133683
11 *841:I *271:28 3.94624e-05
12 *843:A2 *850:A2 1.71461e-05
13 *843:A2 *265:10 5.86019e-06
14 *847:I *848:I 0.000335557
15 *258:10 *848:I 1.83026e-05
16 *604:I *841:I 0.000486177
17 *605:A1 *847:I 4.40123e-05
18 *605:A1 *258:10 2.40935e-05
19 *842:I *841:I 4.21132e-05
20 *851:I *841:I 0.000174617
21 *859:RN *841:I 8.46132e-05
22 *873:A1 *841:I 0.000155235
23 *28:13 *841:I 0.000363261
24 *28:13 *843:A2 6.52531e-05
25 *53:151 *841:I 6.63909e-05
*RES
1 *840:Q *258:6 4.88 
2 *258:6 *258:10 5.032 
3 *258:10 *841:I 17.968 
4 *258:10 *843:A2 9.532 
5 *258:6 *847:I 6.096 
*END

*D_NET *259 0.0034964
*CONN
*I *845:I I *D gf180mcu_fd_sc_mcu7t5v0__clkbuf_1
*I *844:ZN O *D gf180mcu_fd_sc_mcu7t5v0__inv_1
*CAP
1 *845:I 0.000694796
2 *844:ZN 0.000694796
3 *845:I *834:EN 0.000357784
4 *845:I *846:I 0.000368319
5 *845:I *848:I 7.45328e-07
6 *845:I *855:I 0.000307974
7 *845:I *855:ZN 6.94596e-05
8 *845:I *857:I 0.00041486
9 *845:I *858:I 0
10 *845:I *287:12 0.000231473
11 *839:A2 *845:I 0.000356192
12 *83:8 *845:I 0
*RES
1 *844:ZN *845:I 15.688 
*END

*D_NET *260 0.00350983
*CONN
*I *848:I I *D gf180mcu_fd_sc_mcu7t5v0__clkbuf_1
*I *847:ZN O *D gf180mcu_fd_sc_mcu7t5v0__inv_1
*CAP
1 *848:I 0.00106125
2 *847:ZN 0.00106125
3 *848:I *855:I 5.86703e-05
4 *848:I *855:ZN 0.00022049
5 *848:I *858:I 0.000191697
6 *848:I *864:I 0
7 *848:I *870:I 0
8 *848:I *269:8 7.3227e-05
9 *828:I *848:I 0.000113921
10 *831:EN *848:I 0.000300828
11 *837:I *848:I 0
12 *839:A1 *848:I 3.42838e-05
13 *843:A1 *848:I 3.96121e-05
14 *845:I *848:I 7.45328e-07
15 *847:I *848:I 0.000335557
16 *258:10 *848:I 1.83026e-05
*RES
1 *847:ZN *848:I 16.448 
*END

*D_NET *261 0.00157305
*CONN
*I *846:I I *D gf180mcu_fd_sc_mcu7t5v0__clkbuf_1
*I *845:Z O *D gf180mcu_fd_sc_mcu7t5v0__clkbuf_1
*CAP
1 *846:I 0.000324613
2 *845:Z 0.000324613
3 *846:I *834:EN 2.6126e-05
4 *656:I *846:I 0.000529378
5 *845:I *846:I 0.000368319
6 *83:8 *846:I 0
*RES
1 *845:Z *846:I 12.04 
*END

*D_NET *262 0.00028027
*CONN
*I *849:I I *D gf180mcu_fd_sc_mcu7t5v0__clkbuf_1
*I *848:Z O *D gf180mcu_fd_sc_mcu7t5v0__clkbuf_1
*CAP
1 *849:I 0.000140135
2 *848:Z 0.000140135
*RES
1 *848:Z *849:I 9.836 
*END

*D_NET *263 0.00277461
*CONN
*I *833:EN I *D gf180mcu_fd_sc_mcu7t5v0__invz_8
*I *846:Z O *D gf180mcu_fd_sc_mcu7t5v0__clkbuf_1
*CAP
1 *833:EN 0.000596661
2 *846:Z 0.000596661
3 *833:EN *834:EN 5.32421e-05
4 *833:EN *856:I 4.0645e-06
5 *833:EN *857:EN 0.000140167
6 *652:D *833:EN 0.000794182
7 *656:I *833:EN 0.000249042
8 *660:I *833:EN 6.77157e-05
9 *828:I *833:EN 1.53727e-05
10 *831:I *833:EN 2.5879e-05
11 *852:I *833:EN 4.3941e-05
12 *90:8 *833:EN 0.000178072
13 *123:12 *833:EN 9.60584e-06
*RES
1 *846:Z *833:EN 14.168 
*END

*D_NET *264 0.00326844
*CONN
*I *834:EN I *D gf180mcu_fd_sc_mcu7t5v0__invz_4
*I *849:Z O *D gf180mcu_fd_sc_mcu7t5v0__clkbuf_1
*CAP
1 *834:EN 0.00056703
2 *849:Z 0.00056703
3 *834:EN *850:A2 0
4 *834:EN *857:EN 2.97523e-05
5 *656:I *834:EN 4.27211e-05
6 *766:A1 *834:EN 0
7 *828:I *834:EN 0.000156176
8 *832:EN *834:EN 1.34504e-05
9 *833:EN *834:EN 5.32421e-05
10 *837:I *834:EN 0.000343551
11 *839:A2 *834:EN 0.000803603
12 *845:I *834:EN 0.000357784
13 *846:I *834:EN 2.6126e-05
14 *850:A1 *834:EN 1.5015e-05
15 *852:I *834:EN 0.000168637
16 *123:12 *834:EN 0.000124318
*RES
1 *849:Z *834:EN 15.232 
*END

*D_NET *265 0.00309619
*CONN
*I *840:E I *D gf180mcu_fd_sc_mcu7t5v0__latrnq_1
*I *836:E I *D gf180mcu_fd_sc_mcu7t5v0__latrnq_1
*I *850:Z O *D gf180mcu_fd_sc_mcu7t5v0__xor2_1
*CAP
1 *840:E 2.75728e-06
2 *836:E 3.88486e-05
3 *850:Z 0.000509142
4 *265:10 0.000550748
5 *265:10 *850:A2 0.000402555
6 *322:I *836:E 0.000323697
7 *763:D *836:E 8.55327e-05
8 *763:D *840:E 0.000123561
9 *765:I *265:10 8.81325e-07
10 *841:I *265:10 0.000133683
11 *843:A2 *265:10 5.86019e-06
12 *28:13 *265:10 0
13 *30:29 *265:10 0.000216514
14 *53:147 *836:E 5.4634e-05
15 *53:147 *840:E 0.000147313
16 *53:149 *836:E 0.00029375
17 *53:151 *836:E 0.000206711
*RES
1 *850:Z *265:10 17.376 
2 *265:10 *836:E 5.944 
3 *265:10 *840:E 4.88 
*END

*D_NET *266 0.00104288
*CONN
*I *850:A2 I *D gf180mcu_fd_sc_mcu7t5v0__xor2_1
*I *828:Z O *D gf180mcu_fd_sc_mcu7t5v0__clkbuf_2
*CAP
1 *850:A2 0.000240867
2 *828:Z 0.000240867
3 *828:I *850:A2 0.000109422
4 *832:EN *850:A2 2.2394e-05
5 *834:EN *850:A2 0
6 *837:I *850:A2 7.45328e-07
7 *843:A2 *850:A2 1.71461e-05
8 *850:A1 *850:A2 3.42287e-06
9 *28:13 *850:A2 5.45647e-06
10 *265:10 *850:A2 0.000402555
*RES
1 *828:Z *850:A2 19.52 
*END

*D_NET *267 0.00258759
*CONN
*I *830:I I *D gf180mcu_fd_sc_mcu7t5v0__clkbuf_1
*I *833:I I *D gf180mcu_fd_sc_mcu7t5v0__invz_8
*I *834:I I *D gf180mcu_fd_sc_mcu7t5v0__invz_4
*I *829:Z O *D gf180mcu_fd_sc_mcu7t5v0__clkbuf_2
*CAP
1 *830:I 1.7816e-05
2 *833:I 0
3 *834:I 0.000171087
4 *829:Z 0
5 *267:8 0.000324541
6 *267:4 0.00017127
7 *830:I *272:20 0.000648711
8 *650:I *834:I 0.000161313
9 *650:I *267:8 0.000372803
10 *652:D *834:I 4.71429e-05
11 *652:D *267:8 1.34649e-05
12 *831:I *267:8 8.81341e-06
13 *831:ZN *267:8 1.91917e-06
14 *27:21 *830:I 0.000648711
*RES
1 *829:Z *267:4 4.5 
2 *267:4 *267:8 1.368 
3 *267:8 *834:I 5.868 
4 *267:8 *833:I 4.5 
5 *267:4 *830:I 15.096 
*END

*D_NET *268 0.0124772
*CONN
*I *855:I I *D gf180mcu_fd_sc_mcu7t5v0__invz_2
*I *853:Z O *D gf180mcu_fd_sc_mcu7t5v0__clkbuf_1
*CAP
1 *855:I 0.00166089
2 *853:Z 0.00166089
3 *855:I *855:ZN 1.27119e-05
4 *855:I *864:I 0.000725294
5 *855:I *865:I 2.05156e-05
6 *855:I *272:20 0.000173588
7 *855:I *287:12 0
8 *674:A1 *855:I 7.45328e-07
9 *688:I *855:I 5.75752e-06
10 *689:I *855:I 0.000135099
11 *690:ZN *855:I 1.54229e-05
12 *691:I *855:I 0.000657138
13 *692:I *855:I 0.000294274
14 *695:I *855:I 0.000469567
15 *702:I *855:I 0.000778045
16 *703:I *855:I 5.57224e-06
17 *704:I *855:I 8.20354e-05
18 *832:EN *855:I 0.000560057
19 *835:I *855:I 0.000154651
20 *837:I *855:I 0.00026884
21 *839:A1 *855:I 1.36711e-05
22 *839:A2 *855:I 7.4219e-06
23 *845:I *855:I 0.000307974
24 *848:I *855:I 5.86703e-05
25 *27:21 *855:I 0
26 *28:13 *855:I 0.00332802
27 *134:19 *855:I 0.000569188
28 *143:16 *855:I 0.00044065
29 *249:8 *855:I 4.08125e-05
30 *257:12 *855:I 2.96621e-05
*RES
1 *853:Z *855:I 39.888 
*END

*D_NET *269 0.0147806
*CONN
*I *855:ZN O *D gf180mcu_fd_sc_mcu7t5v0__invz_2
*I *858:I I *D gf180mcu_fd_sc_mcu7t5v0__clkinv_2
*I *857:ZN O *D gf180mcu_fd_sc_mcu7t5v0__invz_4
*CAP
1 *855:ZN 0.000436833
2 *858:I 0.00152812
3 *857:ZN 4.03714e-05
4 *269:8 0.00200532
5 *855:ZN *857:I 0.000372496
6 *855:ZN *860:I 0.000146427
7 *855:ZN *287:12 0.000273368
8 *858:I *854:I 2.56705e-05
9 *858:I *856:EN 0.000313935
10 *858:I *868:I 0.00512188
11 *858:I *870:I 2.65268e-05
12 *858:I *871:I 0.00130829
13 *858:I *279:16 0.000793445
14 *269:8 *870:I 4.00328e-06
15 *646:EN *858:I 0.000328031
16 *661:I *858:I 0.000768915
17 *670:I *858:I 3.06264e-05
18 *839:A1 *855:ZN 0.000155728
19 *845:I *855:ZN 6.94596e-05
20 *845:I *858:I 0
21 *848:I *855:ZN 0.00022049
22 *848:I *858:I 0.000191697
23 *848:I *269:8 7.3227e-05
24 *855:I *855:ZN 1.27119e-05
25 *24:15 *855:ZN 0.000341993
26 *83:8 *858:I 9.88736e-06
27 *104:10 *858:I 0.000181173
*RES
1 *857:ZN *269:8 4.956 
2 *269:8 *858:I 43.78 
3 *269:8 *855:ZN 17.908 
*END

*D_NET *270 0.0139584
*CONN
*I *854:I I *D gf180mcu_fd_sc_mcu7t5v0__invz_2
*I *858:ZN O *D gf180mcu_fd_sc_mcu7t5v0__clkinv_2
*CAP
1 *854:I 0.000841524
2 *858:ZN 0.000841524
3 *854:I *856:EN 8.97925e-05
4 *854:I *861:I 0.00011955
5 *854:I *868:I 0
6 *854:I *271:28 0.00439268
7 *641:I *854:I 3.91889e-05
8 *643:EN *854:I 0.000476427
9 *645:EN *854:I 0.000494058
10 *650:I *854:I 0.00146465
11 *651:A1 *854:I 1.12495e-05
12 *676:I *854:I 0.000526238
13 *677:I *854:I 0.000157493
14 *678:A1 *854:I 0.00118776
15 *678:A2 *854:I 0.000310758
16 *683:I *854:I 0.00196829
17 *684:I *854:I 0.000563438
18 *858:I *854:I 2.56705e-05
19 *83:8 *854:I 7.83779e-05
20 *113:12 *854:I 0.000369724
*RES
1 *858:ZN *854:I 38.368 
*END

*D_NET *271 0.0133822
*CONN
*I *862:A1 I *D gf180mcu_fd_sc_mcu7t5v0__or2_2
*I *861:Z O *D gf180mcu_fd_sc_mcu7t5v0__clkbuf_1
*CAP
1 *862:A1 0
2 *861:Z 0.00154143
3 *271:28 0.00154143
4 *271:28 *854:EN 0
5 *271:28 *856:EN 0.001715
6 *271:28 *862:A2 7.24161e-06
7 *271:28 *279:16 0.000329889
8 *321:I *271:28 1.85312e-05
9 *650:I *271:28 0.000336305
10 *667:I *271:28 1.56113e-05
11 *676:I *271:28 0.000526238
12 *677:I *271:28 0.000631737
13 *678:A1 *271:28 0.000644146
14 *678:A2 *271:28 0.000335667
15 *683:I *271:28 0.000355519
16 *684:I *271:28 0.000561256
17 *841:I *271:28 3.94624e-05
18 *854:I *271:28 0.00439268
19 *113:12 *271:28 0.000390052
*RES
1 *861:Z *271:28 45.908 
2 *271:28 *862:A1 4.5 
*END

*D_NET *272 0.0155289
*CONN
*I *866:A1 I *D gf180mcu_fd_sc_mcu7t5v0__or2_2
*I *865:Z O *D gf180mcu_fd_sc_mcu7t5v0__clkbuf_1
*CAP
1 *866:A1 7.34394e-06
2 *865:Z 0.00138699
3 *272:20 0.00139434
4 *272:20 *853:I 0.00566967
5 *272:20 *855:EN 0.000125537
6 *272:20 *857:EN 4.26843e-05
7 *272:20 *860:I 0
8 *272:20 *864:I 0.000288883
9 *272:20 *278:17 0.000239048
10 *272:20 *287:12 0.000916044
11 *674:A1 *272:20 0.00119944
12 *691:EN *272:20 6.04444e-06
13 *691:I *272:20 0
14 *694:D *272:20 0.000482567
15 *702:I *272:20 0
16 *830:I *272:20 0.000648711
17 *831:EN *272:20 0.000465652
18 *831:ZN *272:20 0.00044442
19 *839:A1 *272:20 7.01325e-06
20 *843:A1 *866:A1 0.000142801
21 *843:A1 *272:20 0.000162265
22 *855:I *272:20 0.000173588
23 *13:13 *866:A1 0.00014967
24 *26:13 *272:20 9.71294e-05
25 *27:21 *272:20 0.00147904
26 *134:19 *272:20 0
*RES
1 *865:Z *272:20 46.364 
2 *272:20 *866:A1 13.88 
*END

*D_NET *273 0.00113616
*CONN
*I *854:EN I *D gf180mcu_fd_sc_mcu7t5v0__invz_2
*I *862:Z O *D gf180mcu_fd_sc_mcu7t5v0__or2_2
*CAP
1 *854:EN 0.0002134
2 *862:Z 0.0002134
3 *854:EN *862:A2 0
4 *841:I *854:EN 0.00032044
5 *842:I *854:EN 0.000376901
6 *851:I *854:EN 1.2018e-05
7 *271:28 *854:EN 0
*RES
1 *862:Z *854:EN 11.356 
*END

*D_NET *274 0.00124594
*CONN
*I *855:EN I *D gf180mcu_fd_sc_mcu7t5v0__invz_2
*I *866:Z O *D gf180mcu_fd_sc_mcu7t5v0__or2_2
*CAP
1 *855:EN 0.000318024
2 *866:Z 0.000318024
3 *855:EN *866:A2 0.000130474
4 *855:EN *867:I 0.000333729
5 *605:A1 *855:EN 1.5015e-05
6 *843:A1 *855:EN 5.14116e-06
7 *272:20 *855:EN 0.000125537
*RES
1 *866:Z *855:EN 12.04 
*END

*D_NET *275 0.000823324
*CONN
*I *861:I I *D gf180mcu_fd_sc_mcu7t5v0__clkbuf_1
*I *860:Z O *D gf180mcu_fd_sc_mcu7t5v0__clkbuf_1
*CAP
1 *861:I 0.000220453
2 *860:Z 0.000220453
3 *861:I *869:I 0.000262868
4 *684:I *861:I 0
5 *854:I *861:I 0.00011955
*RES
1 *860:Z *861:I 10.9 
*END

*D_NET *276 0.00123257
*CONN
*I *865:I I *D gf180mcu_fd_sc_mcu7t5v0__clkbuf_1
*I *864:Z O *D gf180mcu_fd_sc_mcu7t5v0__clkbuf_1
*CAP
1 *865:I 0.000410626
2 *864:Z 0.000410626
3 *865:I *853:I 0.000288249
4 *865:I *864:I 5.75052e-05
5 *865:I *872:I 4.50449e-05
6 *855:I *865:I 2.05156e-05
*RES
1 *864:Z *865:I 12.268 
*END

*D_NET *277 0.0177557
*CONN
*I *860:I I *D gf180mcu_fd_sc_mcu7t5v0__clkbuf_1
*I *867:I I *D gf180mcu_fd_sc_mcu7t5v0__inv_1
*I *862:A2 I *D gf180mcu_fd_sc_mcu7t5v0__or2_2
*I *859:Q O *D gf180mcu_fd_sc_mcu7t5v0__latrnq_1
*CAP
1 *860:I 0.00141846
2 *867:I 0.00107713
3 *862:A2 0.000156742
4 *859:Q 0
5 *277:10 0.00133572
6 *277:6 0.00152031
7 *860:I *857:EN 0.0011628
8 *860:I *871:I 0.00141816
9 *860:I *872:I 1.15244e-05
10 *862:A2 *870:I 0
11 *867:I *866:A2 2.03665e-05
12 *867:I *870:I 0
13 *867:I *278:17 0
14 *321:I *277:10 0
15 *597:I *867:I 0.000353742
16 *599:EN *867:I 2.96621e-05
17 *601:I *867:I 8.80064e-05
18 *603:I *867:I 0
19 *604:I *867:I 0.000783889
20 *605:A1 *867:I 0.000408754
21 *642:I *860:I 0.00154556
22 *653:I *860:I 0.000213178
23 *655:A2 *860:I 0.000200343
24 *656:I *860:I 0.000142809
25 *665:I *860:I 0.000665376
26 *841:I *862:A2 0.000571762
27 *841:I *867:I 0.000575184
28 *843:A1 *867:I 0
29 *854:EN *862:A2 0
30 *855:EN *867:I 0.000333729
31 *855:ZN *860:I 0.000146427
32 *9:9 *867:I 9.98239e-05
33 *24:15 *860:I 0.000480423
34 *24:15 *277:10 0.000264187
35 *52:14 *867:I 0.00051482
36 *81:10 *860:I 0.000481652
37 *90:27 *860:I 0.000655318
38 *124:8 *860:I 0.000641851
39 *124:19 *860:I 0.00043076
40 *271:28 *862:A2 7.24161e-06
41 *272:20 *860:I 0
*RES
1 *859:Q *277:6 9 
2 *277:6 *277:10 5.792 
3 *277:10 *862:A2 6.172 
4 *277:10 *867:I 25.508 
5 *277:6 *860:I 30.584 
*END

*D_NET *278 0.0154119
*CONN
*I *864:I I *D gf180mcu_fd_sc_mcu7t5v0__clkbuf_1
*I *870:I I *D gf180mcu_fd_sc_mcu7t5v0__inv_1
*I *866:A2 I *D gf180mcu_fd_sc_mcu7t5v0__or2_2
*I *863:Q O *D gf180mcu_fd_sc_mcu7t5v0__latrnq_1
*CAP
1 *864:I 0.00119193
2 *870:I 0.000165207
3 *866:A2 0.000147985
4 *863:Q 0
5 *278:17 0.00150619
6 *278:4 0.000297035
7 *864:I *853:I 0.000656358
8 *864:I *857:EN 0.000226687
9 *308:I *864:I 0.000453575
10 *652:E *864:I 0.000693949
11 *660:I *864:I 2.76633e-05
12 *666:I *864:I 0.00012053
13 *671:D *864:I 0.000174064
14 *673:I *864:I 0.00143149
15 *674:A2 *864:I 0.000233529
16 *680:I *864:I 0.000296109
17 *685:A2 *864:I 7.15258e-05
18 *696:I *864:I 0.000256306
19 *843:A1 *864:I 8.06703e-05
20 *848:I *864:I 0
21 *848:I *870:I 0
22 *855:EN *866:A2 0.000130474
23 *855:I *864:I 0.000725294
24 *858:I *870:I 2.65268e-05
25 *862:A2 *870:I 0
26 *865:I *864:I 5.75052e-05
27 *867:I *866:A2 2.03665e-05
28 *867:I *870:I 0
29 *867:I *278:17 0
30 *13:13 *864:I 0.00406207
31 *25:17 *864:I 0.000207467
32 *98:10 *864:I 0.000508189
33 *112:12 *864:I 0.00104128
34 *121:10 *864:I 6.99427e-05
35 *121:25 *864:I 0
36 *269:8 *870:I 4.00328e-06
37 *272:20 *864:I 0.000288883
38 *272:20 *278:17 0.000239048
*RES
1 *863:Q *278:4 4.5 
2 *278:4 *866:A2 5.868 
3 *278:4 *278:17 1.596 
4 *278:17 *870:I 5.412 
5 *278:17 *864:I 35.084 
*END

*D_NET *279 0.0176591
*CONN
*I *868:I I *D gf180mcu_fd_sc_mcu7t5v0__clkbuf_1
*I *867:ZN O *D gf180mcu_fd_sc_mcu7t5v0__inv_1
*CAP
1 *868:I 0.000649801
2 *867:ZN 0.00331221
3 *279:16 0.00396201
4 *868:I *856:EN 0.000819656
5 *868:I *871:I 0.000170416
6 *279:16 *856:EN 0.000366379
7 *279:16 *871:I 7.0506e-06
8 *647:I *868:I 0.000469241
9 *661:I *279:16 0.000766628
10 *669:EN *868:I 0.000340241
11 *670:I *868:I 4.52104e-05
12 *854:I *868:I 0
13 *858:I *868:I 0.00512188
14 *858:I *279:16 0.000793445
15 *99:10 *868:I 0.000483061
16 *99:20 *868:I 2.20002e-05
17 *271:28 *279:16 0.000329889
*RES
1 *867:ZN *279:16 36.544 
2 *279:16 *868:I 23.288 
*END

*D_NET *280 0.0123379
*CONN
*I *871:I I *D gf180mcu_fd_sc_mcu7t5v0__clkbuf_1
*I *870:ZN O *D gf180mcu_fd_sc_mcu7t5v0__inv_1
*CAP
1 *871:I 0.00179573
2 *870:ZN 0.00179573
3 *871:I *857:EN 0
4 *871:I *872:I 5.47552e-05
5 *642:I *871:I 0.000108229
6 *644:I *871:I 0.00131781
7 *646:EN *871:I 0.000547606
8 *653:I *871:I 0.000458149
9 *655:A2 *871:I 0.000381142
10 *665:I *871:I 0.000629642
11 *669:EN *871:I 2.4706e-05
12 *670:I *871:I 0.000702363
13 *858:I *871:I 0.00130829
14 *860:I *871:I 0.00141816
15 *868:I *871:I 0.000170416
16 *104:10 *871:I 0.000572666
17 *124:8 *871:I 0.000639572
18 *124:19 *871:I 0.000405851
19 *279:16 *871:I 7.0506e-06
*RES
1 *870:ZN *871:I 40.8 
*END

*D_NET *281 0.00100559
*CONN
*I *869:I I *D gf180mcu_fd_sc_mcu7t5v0__clkbuf_1
*I *868:Z O *D gf180mcu_fd_sc_mcu7t5v0__clkbuf_1
*CAP
1 *869:I 0.000371362
2 *868:Z 0.000371362
3 *869:I *856:EN 0
4 *861:I *869:I 0.000262868
*RES
1 *868:Z *869:I 12.192 
*END

*D_NET *282 0.000852555
*CONN
*I *872:I I *D gf180mcu_fd_sc_mcu7t5v0__clkbuf_1
*I *871:Z O *D gf180mcu_fd_sc_mcu7t5v0__clkbuf_1
*CAP
1 *872:I 0.000341341
2 *871:Z 0.000341341
3 *872:I *857:EN 5.85485e-05
4 *860:I *872:I 1.15244e-05
5 *865:I *872:I 4.50449e-05
6 *871:I *872:I 5.47552e-05
*RES
1 *871:Z *872:I 11.28 
*END

*D_NET *283 0.0072872
*CONN
*I *856:EN I *D gf180mcu_fd_sc_mcu7t5v0__invz_8
*I *869:Z O *D gf180mcu_fd_sc_mcu7t5v0__clkbuf_1
*CAP
1 *856:EN 0.000964853
2 *869:Z 0.000964853
3 *647:I *856:EN 0.000137757
4 *650:I *856:EN 4.27813e-05
5 *651:A2 *856:EN 5.97012e-05
6 *665:I *856:EN 0.000123951
7 *667:I *856:EN 5.76373e-06
8 *677:I *856:EN 2.23598e-06
9 *678:A1 *856:EN 0.000120249
10 *684:I *856:EN 0.000300828
11 *854:I *856:EN 8.97925e-05
12 *858:I *856:EN 0.000313935
13 *868:I *856:EN 0.000819656
14 *869:I *856:EN 0
15 *99:10 *856:EN 0.00101928
16 *99:20 *856:EN 0.000240191
17 *271:28 *856:EN 0.001715
18 *279:16 *856:EN 0.000366379
*RES
1 *869:Z *856:EN 33.656 
*END

*D_NET *284 0.00975509
*CONN
*I *857:EN I *D gf180mcu_fd_sc_mcu7t5v0__invz_4
*I *872:Z O *D gf180mcu_fd_sc_mcu7t5v0__clkbuf_1
*CAP
1 *857:EN 0.00104024
2 *872:Z 0.00104024
3 *308:I *857:EN 0.00012053
4 *652:RN *857:EN 0.000521664
5 *665:I *857:EN 5.75752e-06
6 *666:I *857:EN 0.0007784
7 *673:I *857:EN 0.000448462
8 *680:I *857:EN 0.000587483
9 *833:EN *857:EN 0.000140167
10 *834:EN *857:EN 2.97523e-05
11 *860:I *857:EN 0.0011628
12 *864:I *857:EN 0.000226687
13 *871:I *857:EN 0
14 *872:I *857:EN 5.85485e-05
15 *13:13 *857:EN 0.00021006
16 *24:15 *857:EN 0.00107985
17 *53:258 *857:EN 0.00214145
18 *81:10 *857:EN 0.000120303
19 *272:20 *857:EN 4.26843e-05
*RES
1 *872:Z *857:EN 35.86 
*END

*D_NET *285 0.00220162
*CONN
*I *863:E I *D gf180mcu_fd_sc_mcu7t5v0__latrnq_1
*I *859:E I *D gf180mcu_fd_sc_mcu7t5v0__latrnq_1
*I *873:Z O *D gf180mcu_fd_sc_mcu7t5v0__xor2_1
*CAP
1 *863:E 0
2 *859:E 0.000117453
3 *873:Z 7.98639e-05
4 *285:8 0.000197317
5 *859:E *873:A2 0.000152919
6 *285:8 *873:A2 7.43203e-06
7 *301:I *859:E 3.2743e-05
8 *301:I *285:8 0.000493324
9 *322:I *859:E 0.000726012
10 *843:A1 *859:E 0.000109625
11 *859:D *859:E 8.55327e-05
12 *863:D *285:8 0.000199393
*RES
1 *873:Z *285:8 6.02 
2 *285:8 *859:E 6.704 
3 *285:8 *863:E 4.5 
*END

*D_NET *286 0.00155268
*CONN
*I *873:A2 I *D gf180mcu_fd_sc_mcu7t5v0__xor2_1
*I *851:Z O *D gf180mcu_fd_sc_mcu7t5v0__clkbuf_2
*CAP
1 *873:A2 8.66941e-05
2 *851:Z 8.66941e-05
3 *322:I *873:A2 0.000540425
4 *843:A1 *873:A2 0.000206711
5 *859:E *873:A2 0.000152919
6 *859:RN *873:A2 3.31215e-05
7 *863:D *873:A2 0.000438681
8 *285:8 *873:A2 7.43203e-06
*RES
1 *851:Z *873:A2 11.204 
*END

*D_NET *287 0.0155871
*CONN
*I *857:I I *D gf180mcu_fd_sc_mcu7t5v0__invz_4
*I *853:I I *D gf180mcu_fd_sc_mcu7t5v0__clkbuf_1
*I *856:I I *D gf180mcu_fd_sc_mcu7t5v0__invz_8
*I *852:Z O *D gf180mcu_fd_sc_mcu7t5v0__clkbuf_2
*CAP
1 *857:I 3.79086e-05
2 *853:I 0.000975596
3 *856:I 0.000418722
4 *852:Z 0
5 *287:12 0.00160047
6 *287:4 0.00024406
7 *650:I *856:I 8.20959e-05
8 *652:D *856:I 7.6673e-05
9 *652:RN *856:I 0.000526519
10 *656:I *856:I 0
11 *660:I *856:I 0.000679088
12 *661:I *856:I 0.00025334
13 *671:RN *853:I 2.65777e-05
14 *685:A2 *853:I 4.87601e-06
15 *691:EN *853:I 5.7998e-05
16 *754:A1 *853:I 0.000300229
17 *833:EN *856:I 4.0645e-06
18 *839:A1 *853:I 0.000779135
19 *839:A1 *287:12 0.000260276
20 *845:I *857:I 0.00041486
21 *845:I *287:12 0.000231473
22 *855:I *287:12 0
23 *855:ZN *857:I 0.000372496
24 *855:ZN *287:12 0.000273368
25 *864:I *853:I 0.000656358
26 *865:I *853:I 0.000288249
27 *121:10 *853:I 0
28 *121:25 *853:I 0.000436911
29 *272:20 *853:I 0.00566967
30 *272:20 *287:12 0.000916044
*RES
1 *852:Z *287:4 4.5 
2 *287:4 *287:12 7.92 
3 *287:12 *856:I 13.028 
4 *287:12 *853:I 26.024 
5 *287:4 *857:I 5.64 
*END

*D_NET *288 0.00060085
*CONN
*I *880:EN I *D gf180mcu_fd_sc_mcu7t5v0__invz_8
*I *875:ZN O *D gf180mcu_fd_sc_mcu7t5v0__nor2_2
*CAP
1 *880:EN 0.000166203
2 *875:ZN 0.000166203
3 *880:EN *292:6 9.65141e-05
4 *30:29 *880:EN 1.02578e-05
5 *53:231 *880:EN 0.000161672
*RES
1 *875:ZN *880:EN 10.596 
*END

*D_NET *289 0.00097178
*CONN
*I *879:I I *D gf180mcu_fd_sc_mcu7t5v0__invz_2
*I *877:Z O *D gf180mcu_fd_sc_mcu7t5v0__clkbuf_1
*CAP
1 *879:I 0.000346181
2 *877:Z 0.000346181
3 *879:I *878:I 3.75402e-05
4 *879:I *879:ZN 6.98197e-05
5 *879:I *290:8 3.73627e-05
6 *795:I *879:I 5.76373e-06
7 *796:I *879:I 0
8 *880:I *879:I 1.69174e-05
9 *76:66 *879:I 8.55327e-05
10 *76:72 *879:I 2.64818e-05
*RES
1 *877:Z *879:I 11.356 
*END

*D_NET *290 0.00250096
*CONN
*I *882:I I *D gf180mcu_fd_sc_mcu7t5v0__clkinv_1
*I *879:ZN O *D gf180mcu_fd_sc_mcu7t5v0__invz_2
*I *881:ZN O *D gf180mcu_fd_sc_mcu7t5v0__invz_4
*CAP
1 *882:I 0.000323498
2 *879:ZN 0.00016624
3 *881:ZN 2.31224e-05
4 *290:8 0.000512861
5 *882:I *878:I 0.00108653
6 *290:8 *878:I 1.75557e-05
7 *745:I *882:I 1.2339e-05
8 *783:I *882:I 2.23598e-06
9 *816:A1 *879:ZN 5.31711e-05
10 *816:A1 *882:I 4.29924e-05
11 *879:I *879:ZN 6.98197e-05
12 *879:I *290:8 3.73627e-05
13 *880:I *879:ZN 3.87828e-05
14 *16:7 *879:ZN 4.18603e-05
15 *16:7 *882:I 6.26968e-05
16 *177:8 *882:I 9.88736e-06
*RES
1 *881:ZN *290:8 9.228 
2 *290:8 *879:ZN 10.216 
3 *290:8 *882:I 12.496 
*END

*D_NET *291 0.00286082
*CONN
*I *878:I I *D gf180mcu_fd_sc_mcu7t5v0__invz_2
*I *882:ZN O *D gf180mcu_fd_sc_mcu7t5v0__clkinv_1
*CAP
1 *878:I 0.000551946
2 *882:ZN 0.000551946
3 *314:I *878:I 5.83188e-05
4 *732:I *878:I 5.76373e-06
5 *744:E *878:I 0
6 *744:RN *878:I 0
7 *816:A1 *878:I 0.000532414
8 *879:I *878:I 3.75402e-05
9 *880:I *878:I 1.88052e-05
10 *882:I *878:I 0.00108653
11 *290:8 *878:I 1.75557e-05
*RES
1 *882:ZN *878:I 23.624 
*END

*D_NET *292 0.00141614
*CONN
*I *875:A2 I *D gf180mcu_fd_sc_mcu7t5v0__nor2_2
*I *878:EN I *D gf180mcu_fd_sc_mcu7t5v0__invz_2
*I *886:Q O *D gf180mcu_fd_sc_mcu7t5v0__latrnq_1
*CAP
1 *875:A2 0
2 *878:EN 6.51011e-05
3 *886:Q 0.00015288
4 *292:6 0.000217981
5 *875:A1 *292:6 0.000121764
6 *880:EN *292:6 9.65141e-05
7 *5:38 *292:6 0.000441055
8 *15:27 *878:EN 0.000269865
9 *16:7 *878:EN 0
10 *53:231 *292:6 5.0983e-05
*RES
1 *886:Q *292:6 6.4 
2 *292:6 *878:EN 14.184 
3 *292:6 *875:A2 4.5 
*END

*D_NET *293 0.00167568
*CONN
*I *888:I I *D gf180mcu_fd_sc_mcu7t5v0__inv_2
*I *879:EN I *D gf180mcu_fd_sc_mcu7t5v0__invz_2
*I *887:Q O *D gf180mcu_fd_sc_mcu7t5v0__latrnq_1
*CAP
1 *888:I 0.000164619
2 *879:EN 0.000196267
3 *887:Q 0
4 *293:4 0.000360886
5 *879:EN *881:EN 6.48288e-05
6 *888:I *881:EN 9.40742e-05
7 *816:A1 *879:EN 0.000151728
8 *821:I *888:I 9.88736e-06
9 *824:I *879:EN 1.43468e-05
10 *824:I *888:I 4.2224e-05
11 *16:7 *879:EN 6.03845e-05
12 *30:29 *879:EN 0.00012362
13 *30:29 *888:I 2.30549e-05
14 *53:231 *879:EN 0.000369754
*RES
1 *887:Q *293:4 4.5 
2 *293:4 *879:EN 15.856 
3 *293:4 *888:I 5.792 
*END

*D_NET *294 0.00234881
*CONN
*I *887:E I *D gf180mcu_fd_sc_mcu7t5v0__latrnq_1
*I *886:E I *D gf180mcu_fd_sc_mcu7t5v0__latrnq_1
*I *889:Z O *D gf180mcu_fd_sc_mcu7t5v0__xor2_1
*CAP
1 *887:E 0.000129905
2 *886:E 0.000342318
3 *889:Z 0
4 *294:4 0.000472223
5 *327:I *886:E 0.000142225
6 *618:I *886:E 0.000583156
7 *618:I *887:E 6.63909e-05
8 *804:I *886:E 0.000106097
9 *804:I *887:E 0.000281216
10 *804:ZN *886:E 0.000193942
11 *886:D *886:E 2.17248e-05
12 *889:A1 *886:E 9.60894e-06
13 *53:108 *886:E 0
*RES
1 *889:Z *294:4 4.5 
2 *294:4 *886:E 8.452 
3 *294:4 *887:E 5.868 
*END

*D_NET *295 0.000627485
*CONN
*I *874:A2 I *D gf180mcu_fd_sc_mcu7t5v0__and2_2
*I *883:Z O *D gf180mcu_fd_sc_mcu7t5v0__dlyb_1
*CAP
1 *874:A2 0.000206616
2 *883:Z 0.000206616
3 *874:A2 *874:A1 8.50943e-05
4 *837:I *874:A2 2.9378e-06
5 *838:I *874:A2 0
6 *14:17 *874:A2 0.000126222
*RES
1 *883:Z *874:A2 10.52 
*END

*D_NET *296 0.000268045
*CONN
*I *889:A2 I *D gf180mcu_fd_sc_mcu7t5v0__xor2_1
*I *876:Z O *D gf180mcu_fd_sc_mcu7t5v0__clkbuf_2
*CAP
1 *889:A2 6.69659e-05
2 *876:Z 6.69659e-05
3 *15:27 *889:A2 0
4 *16:7 *889:A2 0.000134113
*RES
1 *876:Z *889:A2 18.684 
*END

*D_NET *297 0.00314053
*CONN
*I *880:ZN O *D gf180mcu_fd_sc_mcu7t5v0__invz_8
*I *874:A1 I *D gf180mcu_fd_sc_mcu7t5v0__and2_2
*I *878:ZN O *D gf180mcu_fd_sc_mcu7t5v0__invz_2
*I *884:ZN O *D gf180mcu_fd_sc_mcu7t5v0__invz_1
*CAP
1 *880:ZN 0
2 *874:A1 0.000428734
3 *878:ZN 8.49515e-05
4 *884:ZN 2.36258e-05
5 *297:12 0.00081354
6 *297:6 0.00032348
7 *313:I *874:A1 5.85821e-06
8 *732:I *874:A1 1.26856e-05
9 *732:I *878:ZN 0
10 *754:A2 *297:6 0.000493315
11 *838:I *874:A1 0
12 *874:A2 *874:A1 8.50943e-05
13 *880:I *874:A1 2.30549e-05
14 *880:I *878:ZN 3.87828e-05
15 *884:EN *874:A1 2.40654e-06
16 *14:17 *874:A1 2.333e-05
17 *15:27 *297:6 0.000493315
18 *15:27 *297:12 0.000126196
19 *185:14 *297:12 9.77285e-05
20 *185:24 *874:A1 6.44359e-05
21 *185:24 *297:12 0
*RES
1 *884:ZN *297:6 5.792 
2 *297:6 *297:12 10.9 
3 *297:12 *878:ZN 5.032 
4 *297:12 *874:A1 7.464 
5 *297:6 *880:ZN 4.5 
*END

*D_NET *298 0.000710572
*CONN
*I *881:EN I *D gf180mcu_fd_sc_mcu7t5v0__invz_4
*I *888:ZN O *D gf180mcu_fd_sc_mcu7t5v0__inv_2
*CAP
1 *881:EN 0.000118274
2 *888:ZN 0.000118274
3 *317:I *881:EN 0
4 *879:EN *881:EN 6.48288e-05
5 *888:I *881:EN 9.40742e-05
6 *30:29 *881:EN 0.00031512
*RES
1 *888:ZN *881:EN 10.368 
*END

*D_NET *299 0.00130318
*CONN
*I *884:I I *D gf180mcu_fd_sc_mcu7t5v0__invz_1
*I *885:Z O *D gf180mcu_fd_sc_mcu7t5v0__tieh
*CAP
1 *884:I 0.000292855
2 *885:Z 0.000292855
3 *326:I *884:I 4.90639e-05
4 *715:EN *884:I 1.12495e-05
5 *730:I *884:I 3.83946e-05
6 *744:E *884:I 7.64884e-05
7 *800:A1 *884:I 0.000453575
8 *5:17 *884:I 6.10944e-05
9 *184:8 *884:I 2.76081e-05
*RES
1 *885:Z *884:I 20.888 
*END
