*SPEF "ieee 1481-1999"
*DESIGN "ring_osc2x13"
*DATE "22:38:20 Monday December 01, 2025"
*VENDOR "The OpenROAD Project"
*PROGRAM "OpenROAD"
*VERSION "4534556345c94ba27a6ad69fb05594da80f0728b"
*DESIGN_FLOW "NAME_SCOPE LOCAL" "PIN_CAP NONE"
*DIVIDER /
*DELIMITER :
*BUS_DELIMITER []
*T_UNIT 1 NS
*C_UNIT 1 PF
*R_UNIT 1 OHM
*L_UNIT 1 HENRY

*NAME_MAP
*3 clockp[0]
*4 clockp[1]
*5 reset
*6 trim[0]
*7 trim[10]
*8 trim[11]
*9 trim[12]
*10 trim[13]
*11 trim[14]
*12 trim[15]
*13 trim[16]
*14 trim[17]
*15 trim[18]
*16 trim[19]
*17 trim[1]
*18 trim[20]
*19 trim[21]
*20 trim[22]
*21 trim[23]
*22 trim[24]
*23 trim[25]
*24 trim[2]
*25 trim[3]
*26 trim[4]
*27 trim[5]
*28 trim[6]
*29 trim[7]
*30 trim[8]
*31 trim[9]
*32 c\[0\]
*33 c\[1\]
*34 dstage\[10\]\.id\.d0
*35 dstage\[10\]\.id\.d1
*36 dstage\[10\]\.id\.d2
*37 dstage\[10\]\.id\.in
*38 dstage\[10\]\.id\.ltrim\[0\]
*39 dstage\[10\]\.id\.ltrim\[1\]
*40 dstage\[10\]\.id\.ltrimb\[0\]
*41 dstage\[10\]\.id\.ltrimb\[1\]
*42 dstage\[10\]\.id\.not_edge
*43 dstage\[10\]\.id\.nreset
*44 dstage\[10\]\.id\.out
*45 dstage\[10\]\.id\.out_del
*46 dstage\[10\]\.id\.prev_in
*47 dstage\[10\]\.id\.ts
*48 dstage\[11\]\.id\.d0
*49 dstage\[11\]\.id\.d1
*50 dstage\[11\]\.id\.d2
*51 dstage\[11\]\.id\.ltrim\[0\]
*52 dstage\[11\]\.id\.ltrim\[1\]
*53 dstage\[11\]\.id\.ltrimb\[0\]
*54 dstage\[11\]\.id\.ltrimb\[1\]
*55 dstage\[11\]\.id\.not_edge
*56 dstage\[11\]\.id\.out
*57 dstage\[11\]\.id\.out_del
*58 dstage\[11\]\.id\.prev_in
*59 dstage\[11\]\.id\.ts
*60 dstage\[2\]\.id\.d0
*61 dstage\[2\]\.id\.d1
*62 dstage\[2\]\.id\.d2
*63 dstage\[2\]\.id\.in
*64 dstage\[2\]\.id\.ltrim\[0\]
*65 dstage\[2\]\.id\.ltrim\[1\]
*66 dstage\[2\]\.id\.ltrimb\[0\]
*67 dstage\[2\]\.id\.ltrimb\[1\]
*68 dstage\[2\]\.id\.not_edge
*69 dstage\[2\]\.id\.out
*70 dstage\[2\]\.id\.out_del
*71 dstage\[2\]\.id\.prev_in
*72 dstage\[2\]\.id\.ts
*73 dstage\[3\]\.id\.d0
*74 dstage\[3\]\.id\.d1
*75 dstage\[3\]\.id\.d2
*76 dstage\[3\]\.id\.ltrim\[0\]
*77 dstage\[3\]\.id\.ltrim\[1\]
*78 dstage\[3\]\.id\.ltrimb\[0\]
*79 dstage\[3\]\.id\.ltrimb\[1\]
*80 dstage\[3\]\.id\.not_edge
*81 dstage\[3\]\.id\.out
*82 dstage\[3\]\.id\.out_del
*83 dstage\[3\]\.id\.prev_in
*84 dstage\[3\]\.id\.ts
*85 dstage\[4\]\.id\.d0
*86 dstage\[4\]\.id\.d1
*87 dstage\[4\]\.id\.d2
*88 dstage\[4\]\.id\.ltrim\[0\]
*89 dstage\[4\]\.id\.ltrim\[1\]
*90 dstage\[4\]\.id\.ltrimb\[0\]
*91 dstage\[4\]\.id\.ltrimb\[1\]
*92 dstage\[4\]\.id\.not_edge
*93 dstage\[4\]\.id\.out
*94 dstage\[4\]\.id\.out_del
*95 dstage\[4\]\.id\.ts
*96 dstage\[5\]\.id\.d0
*97 dstage\[5\]\.id\.d1
*98 dstage\[5\]\.id\.d2
*99 dstage\[5\]\.id\.ltrim\[0\]
*100 dstage\[5\]\.id\.ltrim\[1\]
*101 dstage\[5\]\.id\.ltrimb\[0\]
*102 dstage\[5\]\.id\.ltrimb\[1\]
*103 dstage\[5\]\.id\.not_edge
*104 dstage\[5\]\.id\.out
*105 dstage\[5\]\.id\.out_del
*106 dstage\[5\]\.id\.ts
*107 dstage\[6\]\.id\.d0
*108 dstage\[6\]\.id\.d1
*109 dstage\[6\]\.id\.d2
*110 dstage\[6\]\.id\.ltrim\[0\]
*111 dstage\[6\]\.id\.ltrim\[1\]
*112 dstage\[6\]\.id\.ltrimb\[0\]
*113 dstage\[6\]\.id\.ltrimb\[1\]
*114 dstage\[6\]\.id\.not_edge
*115 dstage\[6\]\.id\.out
*116 dstage\[6\]\.id\.out_del
*117 dstage\[6\]\.id\.ts
*118 dstage\[7\]\.id\.d0
*119 dstage\[7\]\.id\.d1
*120 dstage\[7\]\.id\.d2
*121 dstage\[7\]\.id\.ltrim\[0\]
*122 dstage\[7\]\.id\.ltrim\[1\]
*123 dstage\[7\]\.id\.ltrimb\[0\]
*124 dstage\[7\]\.id\.ltrimb\[1\]
*125 dstage\[7\]\.id\.not_edge
*126 dstage\[7\]\.id\.out_del
*127 dstage\[7\]\.id\.ts
*128 dstage\[8\]\.id\.d0
*129 dstage\[8\]\.id\.d1
*130 dstage\[8\]\.id\.d2
*131 dstage\[8\]\.id\.ltrim\[0\]
*132 dstage\[8\]\.id\.ltrim\[1\]
*133 dstage\[8\]\.id\.ltrimb\[0\]
*134 dstage\[8\]\.id\.ltrimb\[1\]
*135 dstage\[8\]\.id\.not_edge
*136 dstage\[8\]\.id\.out_del
*137 dstage\[8\]\.id\.ts
*138 dstage\[9\]\.id\.d0
*139 dstage\[9\]\.id\.d1
*140 dstage\[9\]\.id\.d2
*141 dstage\[9\]\.id\.ltrim\[0\]
*142 dstage\[9\]\.id\.ltrim\[1\]
*143 dstage\[9\]\.id\.ltrimb\[0\]
*144 dstage\[9\]\.id\.ltrimb\[1\]
*145 dstage\[9\]\.id\.not_edge
*146 dstage\[9\]\.id\.out_del
*147 dstage\[9\]\.id\.ts
*148 id0\.d0
*149 id0\.d1
*150 id0\.d2
*151 id0\.ltrim\[0\]
*152 id0\.ltrim\[1\]
*153 id0\.ltrimb\[0\]
*154 id0\.ltrimb\[1\]
*155 id0\.not_edge
*156 id0\.out_del
*157 id0\.ts
*158 id1\.d0
*159 id1\.d1
*160 id1\.d2
*161 id1\.ltrim\[0\]
*162 id1\.ltrim\[1\]
*163 id1\.ltrimb\[0\]
*164 id1\.ltrimb\[1\]
*165 id1\.not_edge
*166 id1\.out_del
*167 id1\.ts
*168 iss\.ctrl0b
*169 iss\.d0
*170 iss\.d1
*171 iss\.d2
*172 iss\.ltrim\[0\]
*173 iss\.ltrim\[1\]
*174 iss\.not_edge
*175 iss\.nreset_del
*176 iss\.out_del
*177 iss\.out_precg
*178 iss\.trim1b
*179 net
*180 ANTENNA__0__I
*181 ANTENNA_dstage\[10\]\.id\.t0_latch_D
*182 ANTENNA_dstage\[10\]\.id\.t1_latch_D
*183 ANTENNA_dstage\[11\]\.id\.t0_latch_D
*184 ANTENNA_dstage\[11\]\.id\.t1_latch_D
*185 ANTENNA_dstage\[2\]\.id\.t0_latch_D
*186 ANTENNA_dstage\[2\]\.id\.t1_latch_D
*187 ANTENNA_dstage\[3\]\.id\.t0_latch_D
*188 ANTENNA_dstage\[3\]\.id\.t1_latch_D
*189 ANTENNA_dstage\[4\]\.id\.t0_latch_D
*190 ANTENNA_dstage\[4\]\.id\.t1_latch_D
*191 ANTENNA_dstage\[5\]\.id\.t0_latch_D
*192 ANTENNA_dstage\[5\]\.id\.t1_latch_D
*193 ANTENNA_dstage\[6\]\.id\.t0_latch_D
*194 ANTENNA_dstage\[6\]\.id\.t1_latch_D
*195 ANTENNA_dstage\[7\]\.id\.t0_latch_D
*196 ANTENNA_dstage\[7\]\.id\.t1_latch_D
*197 ANTENNA_dstage\[8\]\.id\.t0_latch_D
*198 ANTENNA_dstage\[8\]\.id\.t1_latch_D
*199 ANTENNA_dstage\[9\]\.id\.t0_latch_D
*200 ANTENNA_dstage\[9\]\.id\.t1_latch_D
*201 ANTENNA_id0\.t0_latch_D
*202 ANTENNA_id0\.t1_latch_D
*203 ANTENNA_id1\.t0_latch_D
*204 ANTENNA_id1\.t1_latch_D
*205 ANTENNA_iss\.ctrlen0_A1
*206 ANTENNA_iss\.reseten0_EN
*207 ANTENNA_iss\.t0_latch_D
*208 ANTENNA_iss\.t1_latch_D
*209 FILLER_0_132
*210 FILLER_0_138
*211 FILLER_0_2
*212 FILLER_0_25
*213 FILLER_0_65
*214 FILLER_0_70
*215 FILLER_0_97
*216 FILLER_10_103
*217 FILLER_10_116
*218 FILLER_10_143
*219 FILLER_10_151
*220 FILLER_10_153
*221 FILLER_10_2
*222 FILLER_10_25
*223 FILLER_10_76
*224 FILLER_11_131
*225 FILLER_11_139
*226 FILLER_11_142
*227 FILLER_11_150
*228 FILLER_11_65
*229 FILLER_11_72
*230 FILLER_12_103
*231 FILLER_12_146
*232 FILLER_12_2
*233 FILLER_12_37
*234 FILLER_13_121
*235 FILLER_13_139
*236 FILLER_13_148
*237 FILLER_13_152
*238 FILLER_14_107
*239 FILLER_14_137
*240 FILLER_14_153
*241 FILLER_14_2
*242 FILLER_14_46
*243 FILLER_14_82
*244 FILLER_15_132
*245 FILLER_15_142
*246 FILLER_15_150
*247 FILLER_15_2
*248 FILLER_15_39
*249 FILLER_15_69
*250 FILLER_16_121
*251 FILLER_16_131
*252 FILLER_16_147
*253 FILLER_16_151
*254 FILLER_16_153
*255 FILLER_16_2
*256 FILLER_16_37
*257 FILLER_17_105
*258 FILLER_17_142
*259 FILLER_17_150
*260 FILLER_17_72
*261 FILLER_18_107
*262 FILLER_18_132
*263 FILLER_18_148
*264 FILLER_18_152
*265 FILLER_18_4
*266 FILLER_19_139
*267 FILLER_19_142
*268 FILLER_19_150
*269 FILLER_19_2
*270 FILLER_19_87
*271 FILLER_1_138
*272 FILLER_1_142
*273 FILLER_1_150
*274 FILLER_1_2
*275 FILLER_1_35
*276 FILLER_20_135
*277 FILLER_20_151
*278 FILLER_20_153
*279 FILLER_20_2
*280 FILLER_20_34
*281 FILLER_20_81
*282 FILLER_21_125
*283 FILLER_21_133
*284 FILLER_21_135
*285 FILLER_21_138
*286 FILLER_21_2
*287 FILLER_21_33
*288 FILLER_21_84
*289 FILLER_2_143
*290 FILLER_2_151
*291 FILLER_2_153
*292 FILLER_2_2
*293 FILLER_2_25
*294 FILLER_2_61
*295 FILLER_3_144
*296 FILLER_3_152
*297 FILLER_3_63
*298 FILLER_3_72
*299 FILLER_4_107
*300 FILLER_4_138
*301 FILLER_4_2
*302 FILLER_4_25
*303 FILLER_4_78
*304 FILLER_5_134
*305 FILLER_5_138
*306 FILLER_5_142
*307 FILLER_5_150
*308 FILLER_5_2
*309 FILLER_6_131
*310 FILLER_6_147
*311 FILLER_6_151
*312 FILLER_6_153
*313 FILLER_6_2
*314 FILLER_6_25
*315 FILLER_7_135
*316 FILLER_7_139
*317 FILLER_7_142
*318 FILLER_7_150
*319 FILLER_7_2
*320 FILLER_7_72
*321 FILLER_8_152
*322 FILLER_8_2
*323 FILLER_8_46
*324 FILLER_8_69
*325 FILLER_9_115
*326 FILLER_9_148
*327 FILLER_9_152
*328 FILLER_9_63
*329 PHY_EDGE_ROW_0_Left_22
*330 PHY_EDGE_ROW_0_Right_0
*331 PHY_EDGE_ROW_10_Left_32
*332 PHY_EDGE_ROW_10_Right_10
*333 PHY_EDGE_ROW_11_Left_33
*334 PHY_EDGE_ROW_11_Right_11
*335 PHY_EDGE_ROW_12_Left_34
*336 PHY_EDGE_ROW_12_Right_12
*337 PHY_EDGE_ROW_13_Left_35
*338 PHY_EDGE_ROW_13_Right_13
*339 PHY_EDGE_ROW_14_Left_36
*340 PHY_EDGE_ROW_14_Right_14
*341 PHY_EDGE_ROW_15_Left_37
*342 PHY_EDGE_ROW_15_Right_15
*343 PHY_EDGE_ROW_16_Left_38
*344 PHY_EDGE_ROW_16_Right_16
*345 PHY_EDGE_ROW_17_Left_39
*346 PHY_EDGE_ROW_17_Right_17
*347 PHY_EDGE_ROW_18_Left_40
*348 PHY_EDGE_ROW_18_Right_18
*349 PHY_EDGE_ROW_19_Left_41
*350 PHY_EDGE_ROW_19_Right_19
*351 PHY_EDGE_ROW_1_Left_23
*352 PHY_EDGE_ROW_1_Right_1
*353 PHY_EDGE_ROW_20_Left_42
*354 PHY_EDGE_ROW_20_Right_20
*355 PHY_EDGE_ROW_21_Left_43
*356 PHY_EDGE_ROW_21_Right_21
*357 PHY_EDGE_ROW_2_Left_24
*358 PHY_EDGE_ROW_2_Right_2
*359 PHY_EDGE_ROW_3_Left_25
*360 PHY_EDGE_ROW_3_Right_3
*361 PHY_EDGE_ROW_4_Left_26
*362 PHY_EDGE_ROW_4_Right_4
*363 PHY_EDGE_ROW_5_Left_27
*364 PHY_EDGE_ROW_5_Right_5
*365 PHY_EDGE_ROW_6_Left_28
*366 PHY_EDGE_ROW_6_Right_6
*367 PHY_EDGE_ROW_7_Left_29
*368 PHY_EDGE_ROW_7_Right_7
*369 PHY_EDGE_ROW_8_Left_30
*370 PHY_EDGE_ROW_8_Right_8
*371 PHY_EDGE_ROW_9_Left_31
*372 PHY_EDGE_ROW_9_Right_9
*373 TAP_TAPCELL_ROW_0_44
*374 TAP_TAPCELL_ROW_0_45
*375 TAP_TAPCELL_ROW_0_46
*376 TAP_TAPCELL_ROW_0_47
*377 TAP_TAPCELL_ROW_10_66
*378 TAP_TAPCELL_ROW_10_67
*379 TAP_TAPCELL_ROW_11_68
*380 TAP_TAPCELL_ROW_11_69
*381 TAP_TAPCELL_ROW_12_70
*382 TAP_TAPCELL_ROW_12_71
*383 TAP_TAPCELL_ROW_13_72
*384 TAP_TAPCELL_ROW_13_73
*385 TAP_TAPCELL_ROW_14_74
*386 TAP_TAPCELL_ROW_14_75
*387 TAP_TAPCELL_ROW_15_76
*388 TAP_TAPCELL_ROW_15_77
*389 TAP_TAPCELL_ROW_16_78
*390 TAP_TAPCELL_ROW_16_79
*391 TAP_TAPCELL_ROW_17_80
*392 TAP_TAPCELL_ROW_17_81
*393 TAP_TAPCELL_ROW_18_82
*394 TAP_TAPCELL_ROW_18_83
*395 TAP_TAPCELL_ROW_19_84
*396 TAP_TAPCELL_ROW_19_85
*397 TAP_TAPCELL_ROW_1_48
*398 TAP_TAPCELL_ROW_1_49
*399 TAP_TAPCELL_ROW_20_86
*400 TAP_TAPCELL_ROW_20_87
*401 TAP_TAPCELL_ROW_21_88
*402 TAP_TAPCELL_ROW_21_89
*403 TAP_TAPCELL_ROW_21_90
*404 TAP_TAPCELL_ROW_21_91
*405 TAP_TAPCELL_ROW_2_50
*406 TAP_TAPCELL_ROW_2_51
*407 TAP_TAPCELL_ROW_3_52
*408 TAP_TAPCELL_ROW_3_53
*409 TAP_TAPCELL_ROW_4_54
*410 TAP_TAPCELL_ROW_4_55
*411 TAP_TAPCELL_ROW_5_56
*412 TAP_TAPCELL_ROW_5_57
*413 TAP_TAPCELL_ROW_6_58
*414 TAP_TAPCELL_ROW_6_59
*415 TAP_TAPCELL_ROW_7_60
*416 TAP_TAPCELL_ROW_7_61
*417 TAP_TAPCELL_ROW_8_62
*418 TAP_TAPCELL_ROW_8_63
*419 TAP_TAPCELL_ROW_9_64
*420 TAP_TAPCELL_ROW_9_65
*421 _0_
*422 dstage\[10\]\.id\.deglitch_buf
*423 dstage\[10\]\.id\.delaybuf0
*424 dstage\[10\]\.id\.delaybuf1
*425 dstage\[10\]\.id\.delayen0
*426 dstage\[10\]\.id\.delayen1
*427 dstage\[10\]\.id\.delayenb0
*428 dstage\[10\]\.id\.delayenb1
*429 dstage\[10\]\.id\.delayint0
*430 dstage\[10\]\.id\.hold_d1
*431 dstage\[10\]\.id\.hold_out
*432 dstage\[10\]\.id\.t0_latch
*433 dstage\[10\]\.id\.t1_latch
*434 dstage\[10\]\.id\.trim0bar
*435 dstage\[10\]\.id\.trim1bar
*436 dstage\[10\]\.id\.trim_inhibit
*437 dstage\[11\]\.id\.deglitch_buf
*438 dstage\[11\]\.id\.delaybuf0
*439 dstage\[11\]\.id\.delaybuf1
*440 dstage\[11\]\.id\.delayen0
*441 dstage\[11\]\.id\.delayen1
*442 dstage\[11\]\.id\.delayenb0
*443 dstage\[11\]\.id\.delayenb1
*444 dstage\[11\]\.id\.delayint0
*445 dstage\[11\]\.id\.hold_d1
*446 dstage\[11\]\.id\.hold_out
*447 dstage\[11\]\.id\.t0_latch
*448 dstage\[11\]\.id\.t1_latch
*449 dstage\[11\]\.id\.trim0bar
*450 dstage\[11\]\.id\.trim1bar
*451 dstage\[11\]\.id\.trim_inhibit
*452 dstage\[2\]\.id\.deglitch_buf
*453 dstage\[2\]\.id\.delaybuf0
*454 dstage\[2\]\.id\.delaybuf1
*455 dstage\[2\]\.id\.delayen0
*456 dstage\[2\]\.id\.delayen1
*457 dstage\[2\]\.id\.delayenb0
*458 dstage\[2\]\.id\.delayenb1
*459 dstage\[2\]\.id\.delayint0
*460 dstage\[2\]\.id\.hold_d1
*461 dstage\[2\]\.id\.hold_out
*462 dstage\[2\]\.id\.t0_latch
*463 dstage\[2\]\.id\.t1_latch
*464 dstage\[2\]\.id\.trim0bar
*465 dstage\[2\]\.id\.trim1bar
*466 dstage\[2\]\.id\.trim_inhibit
*467 dstage\[3\]\.id\.deglitch_buf
*468 dstage\[3\]\.id\.delaybuf0
*469 dstage\[3\]\.id\.delaybuf1
*470 dstage\[3\]\.id\.delayen0
*471 dstage\[3\]\.id\.delayen1
*472 dstage\[3\]\.id\.delayenb0
*473 dstage\[3\]\.id\.delayenb1
*474 dstage\[3\]\.id\.delayint0
*475 dstage\[3\]\.id\.hold_d1
*476 dstage\[3\]\.id\.hold_out
*477 dstage\[3\]\.id\.t0_latch
*478 dstage\[3\]\.id\.t1_latch
*479 dstage\[3\]\.id\.trim0bar
*480 dstage\[3\]\.id\.trim1bar
*481 dstage\[3\]\.id\.trim_inhibit
*482 dstage\[4\]\.id\.deglitch_buf
*483 dstage\[4\]\.id\.delaybuf0
*484 dstage\[4\]\.id\.delaybuf1
*485 dstage\[4\]\.id\.delayen0
*486 dstage\[4\]\.id\.delayen1
*487 dstage\[4\]\.id\.delayenb0
*488 dstage\[4\]\.id\.delayenb1
*489 dstage\[4\]\.id\.delayint0
*490 dstage\[4\]\.id\.hold_d1
*491 dstage\[4\]\.id\.hold_out
*492 dstage\[4\]\.id\.t0_latch
*493 dstage\[4\]\.id\.t1_latch
*494 dstage\[4\]\.id\.trim0bar
*495 dstage\[4\]\.id\.trim1bar
*496 dstage\[4\]\.id\.trim_inhibit
*497 dstage\[5\]\.id\.deglitch_buf
*498 dstage\[5\]\.id\.delaybuf0
*499 dstage\[5\]\.id\.delaybuf1
*500 dstage\[5\]\.id\.delayen0
*501 dstage\[5\]\.id\.delayen1
*502 dstage\[5\]\.id\.delayenb0
*503 dstage\[5\]\.id\.delayenb1
*504 dstage\[5\]\.id\.delayint0
*505 dstage\[5\]\.id\.hold_d1
*506 dstage\[5\]\.id\.hold_out
*507 dstage\[5\]\.id\.t0_latch
*508 dstage\[5\]\.id\.t1_latch
*509 dstage\[5\]\.id\.trim0bar
*510 dstage\[5\]\.id\.trim1bar
*511 dstage\[5\]\.id\.trim_inhibit
*512 dstage\[6\]\.id\.deglitch_buf
*513 dstage\[6\]\.id\.delaybuf0
*514 dstage\[6\]\.id\.delaybuf1
*515 dstage\[6\]\.id\.delayen0
*516 dstage\[6\]\.id\.delayen1
*517 dstage\[6\]\.id\.delayenb0
*518 dstage\[6\]\.id\.delayenb1
*519 dstage\[6\]\.id\.delayint0
*520 dstage\[6\]\.id\.hold_d1
*521 dstage\[6\]\.id\.hold_out
*522 dstage\[6\]\.id\.t0_latch
*523 dstage\[6\]\.id\.t1_latch
*524 dstage\[6\]\.id\.trim0bar
*525 dstage\[6\]\.id\.trim1bar
*526 dstage\[6\]\.id\.trim_inhibit
*527 dstage\[7\]\.id\.deglitch_buf
*528 dstage\[7\]\.id\.delaybuf0
*529 dstage\[7\]\.id\.delaybuf1
*530 dstage\[7\]\.id\.delayen0
*531 dstage\[7\]\.id\.delayen1
*532 dstage\[7\]\.id\.delayenb0
*533 dstage\[7\]\.id\.delayenb1
*534 dstage\[7\]\.id\.delayint0
*535 dstage\[7\]\.id\.hold_d1
*536 dstage\[7\]\.id\.hold_out
*537 dstage\[7\]\.id\.t0_latch
*538 dstage\[7\]\.id\.t1_latch
*539 dstage\[7\]\.id\.trim0bar
*540 dstage\[7\]\.id\.trim1bar
*541 dstage\[7\]\.id\.trim_inhibit
*542 dstage\[8\]\.id\.deglitch_buf
*543 dstage\[8\]\.id\.delaybuf0
*544 dstage\[8\]\.id\.delaybuf1
*545 dstage\[8\]\.id\.delayen0
*546 dstage\[8\]\.id\.delayen1
*547 dstage\[8\]\.id\.delayenb0
*548 dstage\[8\]\.id\.delayenb1
*549 dstage\[8\]\.id\.delayint0
*550 dstage\[8\]\.id\.hold_d1
*551 dstage\[8\]\.id\.hold_out
*552 dstage\[8\]\.id\.t0_latch
*553 dstage\[8\]\.id\.t1_latch
*554 dstage\[8\]\.id\.trim0bar
*555 dstage\[8\]\.id\.trim1bar
*556 dstage\[8\]\.id\.trim_inhibit
*557 dstage\[9\]\.id\.deglitch_buf
*558 dstage\[9\]\.id\.delaybuf0
*559 dstage\[9\]\.id\.delaybuf1
*560 dstage\[9\]\.id\.delayen0
*561 dstage\[9\]\.id\.delayen1
*562 dstage\[9\]\.id\.delayenb0
*563 dstage\[9\]\.id\.delayenb1
*564 dstage\[9\]\.id\.delayint0
*565 dstage\[9\]\.id\.hold_d1
*566 dstage\[9\]\.id\.hold_out
*567 dstage\[9\]\.id\.t0_latch
*568 dstage\[9\]\.id\.t1_latch
*569 dstage\[9\]\.id\.trim0bar
*570 dstage\[9\]\.id\.trim1bar
*571 dstage\[9\]\.id\.trim_inhibit
*572 ibufp00
*573 ibufp01
*574 ibufp10
*575 ibufp11
*576 id0\.deglitch_buf
*577 id0\.delaybuf0
*578 id0\.delaybuf1
*579 id0\.delayen0
*580 id0\.delayen1
*581 id0\.delayenb0
*582 id0\.delayenb1
*583 id0\.delayint0
*584 id0\.hold_d1
*585 id0\.hold_out
*586 id0\.t0_latch
*587 id0\.t1_latch
*588 id0\.trim0bar
*589 id0\.trim1bar
*590 id0\.trim_inhibit
*591 id1\.deglitch_buf
*592 id1\.delaybuf0
*593 id1\.delaybuf1
*594 id1\.delayen0
*595 id1\.delayen1
*596 id1\.delayenb0
*597 id1\.delayenb1
*598 id1\.delayint0
*599 id1\.hold_d1
*600 id1\.hold_out
*601 id1\.t0_latch
*602 id1\.t1_latch
*603 id1\.trim0bar
*604 id1\.trim1bar
*605 id1\.trim_inhibit
*606 iss\.cg_and
*607 iss\.ctrlen0
*608 iss\.deglitch_buf
*609 iss\.delaybuf0
*610 iss\.delayen0
*611 iss\.delayen1
*612 iss\.delayenb0
*613 iss\.delayenb1
*614 iss\.delayint0
*615 iss\.hold_d1
*616 iss\.hold_out
*617 iss\.nreset_delay
*618 iss\.reseten0
*619 iss\.reseten0_1
*620 iss\.t0_latch
*621 iss\.t1_latch
*622 iss\.trim1bar
*623 iss\.trim_inhibit

*PORTS
clockp[0] O
clockp[1] O
reset I
trim[0] I
trim[10] I
trim[11] I
trim[12] I
trim[13] I
trim[14] I
trim[15] I
trim[16] I
trim[17] I
trim[18] I
trim[19] I
trim[1] I
trim[20] I
trim[21] I
trim[22] I
trim[23] I
trim[24] I
trim[25] I
trim[2] I
trim[3] I
trim[4] I
trim[5] I
trim[6] I
trim[7] I
trim[8] I
trim[9] I

*D_NET *3 0.00184444
*CONN
*P clockp[0] O
*I *573:ZN O *D gf180mcu_fd_sc_mcu7t5v0__clkinv_8
*CAP
1 clockp[0] 0.000671305
2 *573:ZN 0.000671305
3 clockp[0] *198:I 3.21839e-05
4 clockp[0] *545:ZN 0
5 clockp[0] *551:Z 0.000113016
6 clockp[0] *561:EN 0
7 clockp[0] *562:EN 0.000337769
8 clockp[0] *569:I 1.8858e-05
9 clockp[0] *58:35 0
*RES
1 *573:ZN clockp[0] 18.544 
*END

*D_NET *4 0.00138558
*CONN
*P clockp[1] O
*I *575:ZN O *D gf180mcu_fd_sc_mcu7t5v0__clkinv_8
*CAP
1 clockp[1] 0.000406528
2 *575:ZN 0.000406528
3 clockp[1] *440:I 0.000156319
4 clockp[1] *575:I 0.0004162
*RES
1 *575:ZN clockp[1] 8.296 
*END

*D_NET *5 0.00737544
*CONN
*P reset I
*I *206:I I *D gf180mcu_fd_sc_mcu7t5v0__antenna
*I *618:EN I *D gf180mcu_fd_sc_mcu7t5v0__invz_1
*I *205:I I *D gf180mcu_fd_sc_mcu7t5v0__antenna
*I *607:A1 I *D gf180mcu_fd_sc_mcu7t5v0__nor2_2
*I *421:I I *D gf180mcu_fd_sc_mcu7t5v0__clkinv_1
*I *180:I I *D gf180mcu_fd_sc_mcu7t5v0__antenna
*CAP
1 reset 0.000523817
2 *206:I 0.00037538
3 *618:EN 0.000382151
4 *205:I 0
5 *607:A1 8.00635e-05
6 *421:I 3.70036e-05
7 *180:I 7.12526e-05
8 *5:19 0.000260819
9 *5:17 0.000366088
10 *5:15 0.000174137
11 *5:13 0.00113914
12 *5:9 0.00161551
13 *180:I *545:I 0.000115856
14 *206:I *618:I 0
15 *421:I *545:I 0
16 *421:I *43:8 4.18042e-05
17 *607:A1 *545:I 0.000960784
18 *607:A1 *56:56 0.000582256
19 *607:A1 *56:62 0.000142384
20 *618:EN *506:Z 0
21 *618:EN *612:ZN 3.75723e-05
22 *618:EN *56:56 0
23 *618:EN *56:62 2.08074e-05
24 *618:EN *177:6 1.19584e-05
25 *5:13 *106:10 1.57138e-05
26 *5:15 *106:10 4.94991e-05
27 *5:17 *106:10 0.000124423
28 *5:19 *525:I 0
29 *5:19 *545:I 0.000234643
30 *5:19 *106:10 1.23748e-05
*RES
1 reset *5:9 8.192 
2 *5:9 *5:13 9.18 
3 *5:13 *5:15 0.52 
4 *5:15 *5:17 1.352 
5 *5:17 *5:19 1.768 
6 *5:19 *180:I 9.728 
7 *5:19 *421:I 9.312 
8 *5:17 *607:A1 11.6 
9 *5:15 *205:I 9 
10 *5:13 *618:EN 11.6 
11 *5:9 *206:I 6.892 
*END

*D_NET *6 0.0174993
*CONN
*P trim[0] I
*I *586:D I *D gf180mcu_fd_sc_mcu7t5v0__latrnq_1
*I *201:I I *D gf180mcu_fd_sc_mcu7t5v0__antenna
*CAP
1 trim[0] 0.000498215
2 *586:D 0
3 *201:I 0.00177989
4 *6:11 0.0022781
5 *201:I *203:I 0.000169677
6 *201:I *204:I 0
7 *201:I *459:I 0.000215829
8 *201:I *470:ZN 0.00042999
9 *201:I *533:EN 7.00729e-05
10 *201:I *593:I 3.42575e-05
11 *201:I *597:EN 0.00534716
12 *201:I *599:Z 0.000820149
13 *201:I *603:I 0.00104178
14 *201:I *24:9 5.21684e-05
15 *201:I *26:15 0
16 *201:I *43:149 0
17 *201:I *77:10 0.000496984
18 *201:I *81:8 0.0015424
19 *201:I *161:8 4.25171e-05
20 *201:I *167:12 0.00144835
21 *6:11 *187:I 3.22108e-05
22 *6:11 *478:E 0.000221889
23 *6:11 *533:EN 0.000336439
24 *6:11 *540:I 2.24654e-05
25 *6:11 *586:E 5.13977e-05
26 *6:11 *17:9 3.04054e-05
27 *6:11 *25:15 0.000536931
*RES
1 trim[0] *6:11 10.168 
2 *6:11 *201:I 41.476 
3 *6:11 *586:D 4.5 
*END

*D_NET *7 0.00916875
*CONN
*P trim[10] I
*I *181:I I *D gf180mcu_fd_sc_mcu7t5v0__antenna
*I *432:D I *D gf180mcu_fd_sc_mcu7t5v0__latrnq_1
*CAP
1 trim[10] 0.00128358
2 *181:I 0
3 *432:D 0.000276355
4 *7:21 0.00155993
5 *432:D *536:Z 0.000186931
6 *432:D *44:18 0.000273586
7 *432:D *46:19 0.000137089
8 *432:D *125:10 0.0019553
9 *7:21 *193:I 1.90343e-05
10 *7:21 *467:I 2.45157e-05
11 *7:21 *516:EN 8.84237e-05
12 *7:21 *530:EN 0
13 *7:21 *556:A1 0.000620347
14 *7:21 *8:15 2.82867e-05
15 *7:21 *31:11 2.48366e-05
16 *7:21 *81:43 0.000497185
17 *7:21 *108:12 0.000698193
18 *7:21 *115:6 0.000399417
19 *7:21 *115:16 0.000915009
20 *7:21 *117:8 0.00018073
*RES
1 trim[10] *7:21 17.136 
2 *7:21 *432:D 18.804 
3 *7:21 *181:I 4.5 
*END

*D_NET *8 0.0146538
*CONN
*P trim[11] I
*I *183:I I *D gf180mcu_fd_sc_mcu7t5v0__antenna
*I *447:D I *D gf180mcu_fd_sc_mcu7t5v0__latrnq_1
*CAP
1 trim[11] 0.00305826
2 *183:I 0.000303174
3 *447:D 0
4 *8:15 0.00336143
5 *183:I *447:RN 2.33885e-05
6 *183:I *451:A1 1.87108e-05
7 *183:I *561:ZN 4.36604e-05
8 *183:I *52:8 3.08154e-05
9 *8:15 *193:I 0.000917977
10 *8:15 *202:I 0.00301064
11 *8:15 *447:E 0.000325477
12 *8:15 *447:RN 4.33745e-05
13 *8:15 *448:E 6.04667e-05
14 *8:15 *451:A1 4.61456e-05
15 *8:15 *451:A2 0.000133934
16 *8:15 *467:I 0.00041022
17 *8:15 *517:EN 0.000447626
18 *8:15 *539:I 0.000277094
19 *8:15 *541:A1 0.000250664
20 *8:15 *546:EN 0.000137138
21 *8:15 *546:ZN 3.97877e-05
22 *8:15 *557:I 6.75681e-05
23 *8:15 *560:I 6.84196e-06
24 *8:15 *560:ZN 5.53196e-05
25 *8:15 *561:ZN 9.35542e-06
26 *8:15 *562:I 0.000279793
27 *8:15 *591:I 0.000325477
28 *8:15 *9:9 3.82487e-05
29 *8:15 *10:13 3.35189e-05
30 *8:15 *12:17 9.7357e-05
31 *8:15 *43:55 3.28181e-05
32 *8:15 *43:57 5.52911e-05
33 *8:15 *43:59 0.000260299
34 *8:15 *43:67 7.76931e-05
35 *8:15 *125:10 1.30531e-05
36 *8:15 *155:14 0.000332849
37 *7:21 *8:15 2.82867e-05
*RES
1 trim[11] *8:15 34.712 
2 *8:15 *447:D 4.5 
3 *8:15 *183:I 6.58 
*END

*D_NET *9 0.0135191
*CONN
*P trim[12] I
*I *620:D I *D gf180mcu_fd_sc_mcu7t5v0__latrnq_1
*I *207:I I *D gf180mcu_fd_sc_mcu7t5v0__antenna
*CAP
1 trim[12] 0.00175849
2 *620:D 0.000475731
3 *207:I 0.000208745
4 *9:9 0.00244296
5 *207:I *426:EN 0.000115658
6 *207:I *428:EN 0.000122244
7 *207:I *435:I 4.63309e-05
8 *207:I *546:ZN 0
9 *207:I *566:Z 5.28859e-05
10 *207:I *43:251 1.78817e-06
11 *620:D *426:EN 6.35093e-06
12 *620:D *546:I 3.84621e-05
13 *620:D *43:49 0
14 *9:9 *202:I 0.000573444
15 *9:9 *425:EN 0.0001133
16 *9:9 *428:EN 0.000966936
17 *9:9 *431:Z 0.00034486
18 *9:9 *488:EN 8.10143e-05
19 *9:9 *495:I 0
20 *9:9 *515:ZN 0.000717196
21 *9:9 *525:I 0.000125263
22 *9:9 *530:I 0
23 *9:9 *546:ZN 0
24 *9:9 *566:Z 3.4596e-05
25 *9:9 *590:A2 0.00489234
26 *9:9 *10:13 7.90963e-05
27 *9:9 *15:13 0.00018348
28 *9:9 *43:131 9.96253e-05
29 *8:15 *9:9 3.82487e-05
*RES
1 trim[12] *9:9 26.704 
2 *9:9 *207:I 6.58 
3 *9:9 *620:D 16.1 
*END

*D_NET *10 0.0217625
*CONN
*P trim[13] I
*I *202:I I *D gf180mcu_fd_sc_mcu7t5v0__antenna
*I *587:D I *D gf180mcu_fd_sc_mcu7t5v0__latrnq_1
*CAP
1 trim[13] 0.000544362
2 *202:I 0.00257134
3 *587:D 0.000428429
4 *10:13 0.00354413
5 *202:I *193:I 0
6 *202:I *452:I 2.37133e-06
7 *202:I *486:I 0.00142719
8 *202:I *500:EN 0
9 *202:I *500:ZN 0.000497696
10 *202:I *501:ZN 6.35093e-06
11 *202:I *502:EN 0.000218634
12 *202:I *502:I 6.47535e-05
13 *202:I *503:I 3.3221e-05
14 *202:I *506:Z 5.63044e-06
15 *202:I *508:D 1.98839e-05
16 *202:I *508:RN 0.000104752
17 *202:I *515:ZN 0.000104263
18 *202:I *517:EN 0.000355724
19 *202:I *525:I 0
20 *202:I *582:EN 0.000151966
21 *202:I *15:13 2.10455e-05
22 *202:I *43:131 1.28577e-05
23 *202:I *71:29 2.44247e-05
24 *202:I *104:21 0.000785996
25 *202:I *104:25 0.00284025
26 *202:I *155:14 0.00013285
27 *587:D *523:E 6.01646e-06
28 *587:D *526:A2 0.000317509
29 *587:D *533:EN 1.16656e-05
30 *587:D *556:A1 0.000103788
31 *587:D *43:131 0.000822658
32 *587:D *43:133 0.000151966
33 *587:D *43:135 7.60808e-05
34 *587:D *81:43 0.00017298
35 *587:D *104:39 0.000185295
36 *587:D *155:14 0.000962554
37 *587:D *157:10 3.20057e-06
38 *10:13 *467:I 0.000137166
39 *10:13 *523:D 0.000569964
40 *10:13 *523:E 0.000186474
41 *10:13 *526:A2 2.85151e-05
42 *10:13 *530:I 0.000199988
43 *10:13 *537:D 1.42084e-05
44 *10:13 *11:15 2.01563e-05
45 *10:13 *43:131 6.35093e-06
46 *10:13 *155:14 0.00019118
47 *8:15 *202:I 0.00301064
48 *8:15 *10:13 3.35189e-05
49 *9:9 *202:I 0.000573444
50 *9:9 *10:13 7.90963e-05
*RES
1 trim[13] *10:13 14.252 
2 *10:13 *587:D 24.24 
3 *10:13 *202:I 38.952 
*END

*D_NET *11 0.019053
*CONN
*P trim[14] I
*I *204:I I *D gf180mcu_fd_sc_mcu7t5v0__antenna
*I *602:D I *D gf180mcu_fd_sc_mcu7t5v0__latrnq_1
*CAP
1 trim[14] 0.00113983
2 *204:I 0.00204627
3 *602:D 4.66499e-05
4 *11:15 0.00323275
5 *204:I *464:I 0.00148152
6 *204:I *540:I 4.45041e-05
7 *204:I *579:EN 0.00103152
8 *204:I *586:E 8.13929e-05
9 *204:I *588:I 0.00153061
10 *204:I *596:EN 0.00140098
11 *204:I *602:E 1.57245e-05
12 *204:I *13:13 0.000106581
13 *204:I *26:15 4.49965e-05
14 *204:I *27:13 0.00210348
15 *204:I *165:10 0.000579615
16 *602:D *540:I 1.40331e-05
17 *602:D *586:E 3.22108e-05
18 *11:15 *540:I 0.000283738
19 *11:15 *556:A1 0.00194081
20 *11:15 *12:17 2.01563e-05
21 *11:15 *13:13 3.29608e-05
22 *11:15 *26:15 0.00052233
23 *11:15 *27:13 4.19471e-05
24 *11:15 *29:9 0.000523394
25 *11:15 *30:13 0.000734841
26 *201:I *204:I 0
27 *10:13 *11:15 2.01563e-05
*RES
1 trim[14] *11:15 28.112 
2 *11:15 *602:D 4.812 
3 *11:15 *204:I 43.452 
*END

*D_NET *12 0.0152713
*CONN
*P trim[15] I
*I *186:I I *D gf180mcu_fd_sc_mcu7t5v0__antenna
*I *463:D I *D gf180mcu_fd_sc_mcu7t5v0__latrnq_1
*CAP
1 trim[15] 0.00301932
2 *186:I 0.000114074
3 *463:D 0.000533856
4 *12:17 0.00366725
5 *186:I *605:A2 1.40366e-05
6 *186:I *81:33 7.67136e-06
7 *463:D *462:RN 1.12609e-05
8 *463:D *466:A2 3.57634e-06
9 *463:D *583:I 0.000452472
10 *463:D *605:A1 0.00017298
11 *463:D *43:297 0.00153325
12 *463:D *43:303 0.000176787
13 *463:D *68:8 0.000192871
14 *12:17 *425:EN 0
15 *12:17 *427:EN 0
16 *12:17 *436:A2 0
17 *12:17 *467:I 0.000474779
18 *12:17 *495:I 0.000191727
19 *12:17 *523:D 1.51173e-05
20 *12:17 *531:I 2.43415e-05
21 *12:17 *532:I 0
22 *12:17 *541:A1 0.000224258
23 *12:17 *583:I 0.000419179
24 *12:17 *590:A1 0.000478982
25 *12:17 *591:I 6.65754e-05
26 *12:17 *605:A2 0.00229401
27 *12:17 *13:13 3.05735e-05
28 *12:17 *43:297 0.000167605
29 *12:17 *44:18 0.000634198
30 *12:17 *63:20 4.50662e-05
31 *12:17 *93:16 0.000187924
32 *12:17 *127:10 0
33 *8:15 *12:17 9.7357e-05
34 *11:15 *12:17 2.01563e-05
*RES
1 trim[15] *12:17 35.052 
2 *12:17 *463:D 15.968 
3 *12:17 *186:I 9.52 
*END

*D_NET *13 0.0154238
*CONN
*P trim[16] I
*I *478:D I *D gf180mcu_fd_sc_mcu7t5v0__latrnq_1
*I *188:I I *D gf180mcu_fd_sc_mcu7t5v0__antenna
*CAP
1 trim[16] 0.00276758
2 *478:D 0
3 *188:I 0.00407739
4 *13:13 0.00684497
5 *188:I *203:I 0.000444818
6 *188:I *603:I 0.000257318
7 *188:I *24:9 0.000386997
8 *188:I *63:36 0.00010195
9 *188:I *82:16 0
10 *13:13 *577:I 6.77187e-05
11 *13:13 *14:13 3.00274e-05
12 *13:13 *27:13 0.00027255
13 *13:13 *43:131 0
14 *13:13 *82:16 0
15 *13:13 *127:10 2.39782e-06
16 *204:I *13:13 0.000106581
17 *11:15 *13:13 3.29608e-05
18 *12:17 *13:13 3.05735e-05
*RES
1 trim[16] *13:13 25.484 
2 *13:13 *188:I 40.3769 
3 *13:13 *478:D 9 
*END

*D_NET *14 0.0139279
*CONN
*P trim[17] I
*I *493:D I *D gf180mcu_fd_sc_mcu7t5v0__latrnq_1
*I *190:I I *D gf180mcu_fd_sc_mcu7t5v0__antenna
*CAP
1 trim[17] 0.00204336
2 *493:D 6.11569e-05
3 *190:I 0.000688542
4 *14:13 0.00279306
5 *190:I *515:I 0.00055766
6 *190:I *516:I 0.000519212
7 *190:I *519:I 6.53438e-05
8 *190:I *580:EN 0.000113027
9 *190:I *26:15 0
10 *190:I *108:14 0.000122054
11 *190:I *157:21 0.000144552
12 *493:D *517:I 3.35294e-05
13 *493:D *518:EN 0.000107648
14 *493:D *81:43 0.000176416
15 *493:D *104:39 0.00102346
16 *14:13 *422:I 0
17 *14:13 *436:A2 8.79612e-05
18 *14:13 *515:I 0.00105343
19 *14:13 *516:EN 0
20 *14:13 *530:EN 1.42631e-05
21 *14:13 *532:I 0.00163885
22 *14:13 *534:I 0.000432937
23 *14:13 *535:Z 0.000721658
24 *14:13 *545:ZN 0
25 *14:13 *15:13 4.06108e-05
26 *14:13 *43:101 3.54009e-05
27 *14:13 *46:25 0
28 *14:13 *108:12 3.22108e-05
29 *14:13 *108:14 4.61456e-05
30 *14:13 *119:12 0.000505539
31 *14:13 *127:10 0.000839853
32 *13:13 *14:13 3.00274e-05
*RES
1 trim[17] *14:13 23.168 
2 *14:13 *190:I 10.948 
3 *14:13 *493:D 16.1 
*END

*D_NET *15 0.0157143
*CONN
*P trim[18] I
*I *508:D I *D gf180mcu_fd_sc_mcu7t5v0__latrnq_1
*I *192:I I *D gf180mcu_fd_sc_mcu7t5v0__antenna
*CAP
1 trim[18] 0.0018903
2 *508:D 0.000430258
3 *192:I 0
4 *15:13 0.00232056
5 *508:D *466:A2 1.63544e-05
6 *508:D *497:I 4.45041e-05
7 *508:D *508:E 7.99289e-05
8 *508:D *511:A2 0.000116101
9 *508:D *525:I 0.000958955
10 *508:D *71:29 0.000377613
11 *15:13 *424:I 7.73997e-05
12 *15:13 *427:I 0.00118069
13 *15:13 *431:Z 0.000320177
14 *15:13 *525:I 0.000481325
15 *15:13 *528:I 0.000509149
16 *15:13 *534:I 5.44251e-05
17 *15:13 *554:I 0.00117325
18 *15:13 *556:A1 0.000487069
19 *15:13 *560:EN 0.0010835
20 *15:13 *566:Z 0.000161043
21 *15:13 *571:A1 0.00133719
22 *15:13 *16:7 2.53717e-05
23 *15:13 *21:17 0.000194627
24 *15:13 *43:49 0.000366382
25 *15:13 *43:55 0.000451066
26 *15:13 *43:101 0.000153842
27 *15:13 *43:105 0.000265836
28 *15:13 *47:20 2.83332e-05
29 *15:13 *115:18 0.000851184
30 *15:13 *119:12 1.2856e-05
31 *202:I *508:D 1.98839e-05
32 *202:I *15:13 2.10455e-05
33 *9:9 *15:13 0.00018348
34 *14:13 *15:13 4.06108e-05
*RES
1 trim[18] *15:13 35.052 
2 *15:13 *192:I 9 
3 *15:13 *508:D 13.16 
*END

*D_NET *16 0.00883562
*CONN
*P trim[19] I
*I *194:I I *D gf180mcu_fd_sc_mcu7t5v0__antenna
*I *523:D I *D gf180mcu_fd_sc_mcu7t5v0__latrnq_1
*CAP
1 trim[19] 0.000158688
2 *194:I 0.000218085
3 *523:D 0.000511754
4 *16:7 0.000888528
5 *194:I *529:I 0.000569975
6 *194:I *531:I 7.87395e-06
7 *194:I *568:D 0.000203671
8 *194:I *30:13 0.000137582
9 *523:D *467:I 7.40795e-05
10 *523:D *529:I 8.27958e-05
11 *523:D *530:I 7.95587e-05
12 *523:D *537:D 0.000215823
13 *523:D *537:E 7.05624e-05
14 *523:D *556:A1 0.00180101
15 *523:D *590:A1 1.23478e-05
16 *523:D *590:A2 0.00102691
17 *523:D *30:13 5.52472e-05
18 *523:D *43:131 5.57504e-05
19 *523:D *122:6 0.00201348
20 *16:7 *556:A1 8.48683e-06
21 *16:7 *18:13 3.29585e-05
22 *10:13 *523:D 0.000569964
23 *12:17 *523:D 1.51173e-05
24 *15:13 *16:7 2.53717e-05
*RES
1 trim[19] *16:7 5.8 
2 *16:7 *523:D 24.004 
3 *16:7 *194:I 7.724 
*END

*D_NET *17 0.0160682
*CONN
*P trim[1] I
*I *601:D I *D gf180mcu_fd_sc_mcu7t5v0__latrnq_1
*I *203:I I *D gf180mcu_fd_sc_mcu7t5v0__antenna
*CAP
1 trim[1] 0.000450181
2 *601:D 0
3 *203:I 0.00133898
4 *17:9 0.00178916
5 *203:I *453:I 0.000761756
6 *203:I *454:I 0.000939953
7 *203:I *455:I 0.000207006
8 *203:I *462:D 0.000211104
9 *203:I *473:EN 0.000772908
10 *203:I *595:I 0.000111194
11 *203:I *603:I 0.00573122
12 *203:I *24:9 0.00166112
13 *203:I *63:36 0.00025305
14 *203:I *161:8 0.000755629
15 *17:9 *477:RN 6.0702e-05
16 *17:9 *478:E 8.19964e-05
17 *17:9 *24:9 0.00013888
18 *17:9 *25:15 8.53388e-05
19 *17:9 *43:160 5.3755e-05
20 *17:9 *80:12 1.93852e-05
21 *188:I *203:I 0.000444818
22 *201:I *203:I 0.000169677
23 *6:11 *17:9 3.04054e-05
*RES
1 trim[1] *17:9 8.816 
2 *17:9 *203:I 40.02 
3 *17:9 *601:D 4.5 
*END

*D_NET *18 0.00784477
*CONN
*P trim[20] I
*I *196:I I *D gf180mcu_fd_sc_mcu7t5v0__antenna
*I *538:D I *D gf180mcu_fd_sc_mcu7t5v0__latrnq_1
*CAP
1 trim[20] 0.000697632
2 *196:I 0.0010163
3 *538:D 0
4 *18:13 0.00171394
5 *196:I *199:I 0.000343529
6 *196:I *546:ZN 0.000314907
7 *196:I *554:I 0.000445944
8 *196:I *560:I 0.000262946
9 *196:I *568:D 0
10 *196:I *570:I 0.000392841
11 *196:I *571:A1 8.10097e-05
12 *196:I *37:12 0.00042999
13 *196:I *43:251 0.000314907
14 *196:I *46:31 0.000778706
15 *196:I *115:18 3.48142e-05
16 *196:I *142:10 0.000253488
17 *196:I *145:12 0
18 *18:13 *467:I 0.000228035
19 *18:13 *528:I 5.05629e-05
20 *18:13 *568:D 0.000265815
21 *18:13 *19:11 3.75266e-05
22 *18:13 *43:206 3.17907e-05
23 *18:13 *43:217 5.62982e-05
24 *18:13 *115:18 6.08242e-05
25 *16:7 *18:13 3.29585e-05
*RES
1 trim[20] *18:13 15.5 
2 *18:13 *538:D 9 
3 *18:13 *196:I 20.024 
*END

*D_NET *19 0.00951039
*CONN
*P trim[21] I
*I *198:I I *D gf180mcu_fd_sc_mcu7t5v0__antenna
*I *553:D I *D gf180mcu_fd_sc_mcu7t5v0__latrnq_1
*CAP
1 trim[21] 0.000808321
2 *198:I 0.00250469
3 *553:D 0
4 *19:11 0.00331301
5 *198:I *441:EN 5.62387e-05
6 *198:I *441:I 7.73997e-05
7 *198:I *445:Z 0.000103136
8 *198:I *450:I 7.89888e-05
9 *198:I *551:Z 0.000205515
10 *198:I *553:E 0.000113027
11 *198:I *555:I 0
12 *198:I *561:I 0.000308728
13 *198:I *23:15 0.000376333
14 *198:I *58:10 9.38256e-05
15 *19:11 *200:I 0.000188422
16 *19:11 *552:E 0.000336439
17 *19:11 *553:E 0.000164321
18 *19:11 *556:A1 6.0368e-05
19 *19:11 *568:D 0.00051481
20 *19:11 *573:I 9.5382e-05
21 *19:11 *20:7 4.17346e-05
22 *19:11 *30:13 0
23 clockp[0] *198:I 3.21839e-05
24 *18:13 *19:11 3.75266e-05
*RES
1 trim[21] *19:11 12.04 
2 *19:11 *553:D 4.5 
3 *19:11 *198:I 36.9 
*END

*D_NET *20 0.00295465
*CONN
*P trim[22] I
*I *200:I I *D gf180mcu_fd_sc_mcu7t5v0__antenna
*I *568:D I *D gf180mcu_fd_sc_mcu7t5v0__latrnq_1
*CAP
1 trim[22] 0.000214273
2 *200:I 3.4641e-05
3 *568:D 0.000478824
4 *20:7 0.000727738
5 *200:I *30:13 0
6 *568:D *531:I 1.07369e-05
7 *568:D *556:A1 5.24593e-05
8 *568:D *572:I 0.000182845
9 *568:D *30:13 0
10 *20:7 *21:17 3.86854e-05
11 *194:I *568:D 0.000203671
12 *196:I *568:D 0
13 *18:13 *568:D 0.000265815
14 *19:11 *200:I 0.000188422
15 *19:11 *568:D 0.00051481
16 *19:11 *20:7 4.17346e-05
*RES
1 trim[22] *20:7 6.216 
2 *20:7 *568:D 19.116 
3 *20:7 *200:I 5.02 
*END

*D_NET *21 0.00938476
*CONN
*P trim[23] I
*I *433:D I *D gf180mcu_fd_sc_mcu7t5v0__latrnq_1
*I *182:I I *D gf180mcu_fd_sc_mcu7t5v0__antenna
*CAP
1 trim[23] 0.00167526
2 *433:D 0.000233804
3 *182:I 0
4 *21:17 0.00190906
5 *433:D *433:E 0.000192552
6 *433:D *546:EN 0.000192552
7 *433:D *560:EN 0.000913499
8 *433:D *43:101 0.000320316
9 *21:17 *197:I 0.000195543
10 *21:17 *556:A2 0.000306447
11 *21:17 *560:EN 0.000208806
12 *21:17 *568:RN 0
13 *21:17 *569:I 0
14 *21:17 *22:13 0.000950469
15 *21:17 *30:13 0.000191612
16 *21:17 *43:101 0.000482237
17 *21:17 *46:25 0.00064638
18 *21:17 *115:16 2.74464e-05
19 *21:17 *129:12 0.000330122
20 *21:17 *129:20 0.000197253
21 *21:17 *137:10 0.000124193
22 *21:17 *137:21 3.54865e-05
23 *21:17 *142:10 1.84122e-05
24 *21:17 *145:12 0
25 *15:13 *21:17 0.000194627
26 *20:7 *21:17 3.86854e-05
*RES
1 trim[23] *21:17 25.692 
2 *21:17 *182:I 9 
3 *21:17 *433:D 13.056 
*END

*D_NET *22 0.00875112
*CONN
*P trim[24] I
*I *448:D I *D gf180mcu_fd_sc_mcu7t5v0__latrnq_1
*I *184:I I *D gf180mcu_fd_sc_mcu7t5v0__antenna
*CAP
1 trim[24] 0.00112165
2 *448:D 0.000273705
3 *184:I 3.27193e-05
4 *22:13 0.00142808
5 *184:I *569:I 0.000256274
6 *184:I *145:12 0.000247057
7 *448:D *546:EN 0.000337769
8 *448:D *557:I 6.68141e-05
9 *448:D *562:EN 0.000337769
10 *448:D *572:I 0.0010394
11 *22:13 *197:I 3.44395e-05
12 *22:13 *548:EN 0.000203739
13 *22:13 *550:Z 3.22108e-05
14 *22:13 *556:A2 4.09194e-06
15 *22:13 *569:I 1.65449e-05
16 *22:13 *572:I 0.000531079
17 *22:13 *573:I 0.000526333
18 *22:13 *23:15 0.000165553
19 *22:13 *30:13 0.000238808
20 *22:13 *129:20 3.85961e-05
21 *22:13 *131:20 0.000667432
22 *22:13 *132:8 0.000119229
23 *22:13 *145:12 8.13522e-05
24 *21:17 *22:13 0.000950469
*RES
1 trim[24] *22:13 21.948 
2 *22:13 *184:I 9.728 
3 *22:13 *448:D 12.744 
*END

*D_NET *23 0.0117176
*CONN
*P trim[25] I
*I *208:I I *D gf180mcu_fd_sc_mcu7t5v0__antenna
*I *621:D I *D gf180mcu_fd_sc_mcu7t5v0__latrnq_1
*CAP
1 trim[25] 0.00196263
2 *208:I 0
3 *621:D 0.000408354
4 *23:15 0.00237099
5 *621:D *563:EN 7.43807e-05
6 *621:D *572:I 0.000129834
7 *23:15 *437:I 0
8 *23:15 *441:EN 0.000310596
9 *23:15 *450:I 0.00108643
10 *23:15 *551:Z 0.00019015
11 *23:15 *555:I 0.00163585
12 *23:15 *558:I 0.000137132
13 *23:15 *563:EN 0.000146714
14 *23:15 *37:34 0
15 *23:15 *52:8 0.000122775
16 *23:15 *58:10 0.000143791
17 *23:15 *132:8 0.00217894
18 *23:15 *147:12 0.000277152
19 *198:I *23:15 0.000376333
20 *22:13 *23:15 0.000165553
*RES
1 trim[25] *23:15 26.808 
2 *23:15 *621:D 16.62 
3 *23:15 *208:I 4.5 
*END

*D_NET *24 0.0114714
*CONN
*P trim[2] I
*I *462:D I *D gf180mcu_fd_sc_mcu7t5v0__latrnq_1
*I *185:I I *D gf180mcu_fd_sc_mcu7t5v0__antenna
*CAP
1 trim[2] 0.00120266
2 *462:D 0.000592188
3 *185:I 0.000209098
4 *24:9 0.00200394
5 *185:I *471:EN 3.26036e-05
6 *462:D *457:EN 3.22108e-05
7 *462:D *462:RN 0
8 *462:D *471:I 0.000997047
9 *462:D *473:EN 0.000522341
10 *462:D *473:I 3.98202e-05
11 *462:D *63:36 0.00103585
12 *24:9 *473:EN 0.00028351
13 *24:9 *533:EN 0
14 *24:9 *25:15 2.84415e-05
15 *24:9 *63:16 0.0010029
16 *24:9 *63:36 0.000608792
17 *24:9 *76:12 0.000306032
18 *24:9 *80:12 0
19 *24:9 *82:16 0.000123669
20 *188:I *24:9 0.000386997
21 *201:I *24:9 5.21684e-05
22 *203:I *462:D 0.000211104
23 *203:I *24:9 0.00166112
24 *17:9 *24:9 0.00013888
*RES
1 trim[2] *24:9 15.86 
2 *24:9 *185:I 10.144 
3 *24:9 *462:D 16.072 
*END

*D_NET *25 0.0136657
*CONN
*P trim[3] I
*I *477:D I *D gf180mcu_fd_sc_mcu7t5v0__latrnq_1
*I *187:I I *D gf180mcu_fd_sc_mcu7t5v0__antenna
*CAP
1 trim[3] 0.0006559
2 *477:D 0
3 *187:I 0.0023471
4 *25:15 0.003003
5 *187:I *478:E 0.000113016
6 *187:I *594:I 0.00613889
7 *187:I *595:I 0
8 *187:I *604:I 0.000442801
9 *187:I *80:12 0
10 *25:15 *540:I 0.000251489
11 *25:15 *26:15 3.05836e-05
12 *6:11 *187:I 3.22108e-05
13 *6:11 *25:15 0.000536931
14 *17:9 *25:15 8.53388e-05
15 *24:9 *25:15 2.84415e-05
*RES
1 trim[3] *25:15 19.792 
2 *25:15 *187:I 42.724 
3 *25:15 *477:D 4.5 
*END

*D_NET *26 0.0133283
*CONN
*P trim[4] I
*I *492:D I *D gf180mcu_fd_sc_mcu7t5v0__latrnq_1
*I *189:I I *D gf180mcu_fd_sc_mcu7t5v0__antenna
*CAP
1 trim[4] 0.00184607
2 *492:D 7.10831e-05
3 *189:I 0.000721842
4 *26:15 0.002639
5 *189:I *431:Z 0.000186591
6 *189:I *483:I 7.12358e-05
7 *189:I *486:EN 0.000103788
8 *189:I *488:EN 0.000128303
9 *189:I *518:EN 0.000166324
10 *189:I *582:EN 0.00190821
11 *189:I *81:33 0.00019905
12 *189:I *104:39 0.000777089
13 *492:D *524:I 2.80993e-05
14 *492:D *582:EN 0.000188241
15 *492:D *110:8 5.6515e-05
16 *26:15 *515:I 0
17 *26:15 *533:EN 4.17101e-05
18 *26:15 *580:I 2.15961e-05
19 *26:15 *581:I 9.06272e-05
20 *26:15 *582:EN 0.000404039
21 *26:15 *588:I 0.00180437
22 *26:15 *602:E 0.000174918
23 *26:15 *27:13 2.40043e-05
24 *26:15 *43:149 0.000243156
25 *26:15 *63:10 0.000385441
26 *26:15 *77:10 9.28876e-05
27 *26:15 *157:21 6.3964e-05
28 *26:15 *165:10 0.000292274
29 *190:I *26:15 0
30 *201:I *26:15 0
31 *204:I *26:15 4.49965e-05
32 *11:15 *26:15 0.00052233
33 *25:15 *26:15 3.05836e-05
*RES
1 trim[4] *26:15 26.42 
2 *26:15 *189:I 18.464 
3 *26:15 *492:D 9.936 
*END

*D_NET *27 0.0121783
*CONN
*P trim[5] I
*I *191:I I *D gf180mcu_fd_sc_mcu7t5v0__antenna
*I *507:D I *D gf180mcu_fd_sc_mcu7t5v0__latrnq_1
*CAP
1 trim[5] 0.00210063
2 *191:I 0.000392178
3 *507:D 0
4 *27:13 0.00249281
5 *191:I *193:I 8.91401e-05
6 *191:I *452:I 0.000869429
7 *191:I *466:A2 3.99399e-06
8 *191:I *507:E 0.000168199
9 *191:I *508:E 0.000296543
10 *191:I *582:EN 0.000115715
11 *191:I *69:20 0.000476175
12 *27:13 *462:RN 6.8199e-07
13 *27:13 *466:A2 9.5197e-06
14 *27:13 *472:EN 0.000160039
15 *27:13 *476:Z 4.05593e-05
16 *27:13 *580:I 0.000294741
17 *27:13 *596:EN 0.00165738
18 *27:13 *28:13 5.28423e-05
19 *27:13 *43:149 0.000251973
20 *27:13 *43:303 0
21 *27:13 *69:20 0.000263714
22 *27:13 *157:10 0
23 *204:I *27:13 0.00210348
24 *11:15 *27:13 4.19471e-05
25 *13:13 *27:13 0.00027255
26 *26:15 *27:13 2.40043e-05
*RES
1 trim[5] *27:13 27.536 
2 *27:13 *507:D 4.5 
3 *27:13 *191:I 18.7 
*END

*D_NET *28 0.0163681
*CONN
*P trim[6] I
*I *193:I I *D gf180mcu_fd_sc_mcu7t5v0__antenna
*I *522:D I *D gf180mcu_fd_sc_mcu7t5v0__latrnq_1
*CAP
1 trim[6] 0.00049358
2 *193:I 0.00194576
3 *522:D 0
4 *28:13 0.00243934
5 *193:I *452:I 0.000427051
6 *193:I *467:I 0.000179413
7 *193:I *483:I 0.00041799
8 *193:I *484:I 0.000952138
9 *193:I *486:EN 2.66514e-05
10 *193:I *490:Z 4.73153e-05
11 *193:I *491:Z 4.10707e-05
12 *193:I *511:A2 0
13 *193:I *517:EN 0.000233843
14 *193:I *522:E 0.000850275
15 *193:I *523:E 4.07478e-05
16 *193:I *540:I 7.87395e-06
17 *193:I *582:EN 0
18 *193:I *81:43 0.00492223
19 *193:I *86:24 2.1233e-05
20 *193:I *104:25 4.95578e-05
21 *193:I *104:39 8.89721e-05
22 *193:I *155:14 0.000922543
23 *28:13 *540:I 0.000279356
24 *28:13 *586:E 0.000189052
25 *28:13 *29:9 3.59809e-05
26 *28:13 *155:14 0.000677147
27 *191:I *193:I 8.91401e-05
28 *202:I *193:I 0
29 *7:21 *193:I 1.90343e-05
30 *8:15 *193:I 0.000917977
31 *27:13 *28:13 5.28423e-05
*RES
1 trim[6] *28:13 10.48 
2 *28:13 *522:D 4.5 
3 *28:13 *193:I 38.564 
*END

*D_NET *29 0.00729386
*CONN
*P trim[7] I
*I *537:D I *D gf180mcu_fd_sc_mcu7t5v0__latrnq_1
*I *195:I I *D gf180mcu_fd_sc_mcu7t5v0__antenna
*CAP
1 trim[7] 0.000310322
2 *537:D 0.000288483
3 *195:I 0
4 *29:9 0.000598805
5 *537:D *530:I 0.000105605
6 *537:D *537:E 0.000113765
7 *537:D *540:I 0.00118684
8 *537:D *556:A1 0.0014548
9 *537:D *122:6 0.000300785
10 *29:9 *540:I 0.00173008
11 *29:9 *556:A1 0.000406972
12 *29:9 *30:13 8.00142e-06
13 *523:D *537:D 0.000215823
14 *10:13 *537:D 1.42084e-05
15 *11:15 *29:9 0.000523394
16 *28:13 *29:9 3.59809e-05
*RES
1 trim[7] *29:9 10.48 
2 *29:9 *195:I 4.5 
3 *29:9 *537:D 19.2089 
*END

*D_NET *30 0.0144983
*CONN
*P trim[8] I
*I *197:I I *D gf180mcu_fd_sc_mcu7t5v0__antenna
*I *552:D I *D gf180mcu_fd_sc_mcu7t5v0__latrnq_1
*CAP
1 trim[8] 0.00226017
2 *197:I 0.000750017
3 *552:D 0
4 *30:13 0.00301018
5 *197:I *443:EN 0.000892924
6 *197:I *447:RN 0.000337769
7 *197:I *549:I 1.77568e-05
8 *197:I *562:EN 0.000919377
9 *197:I *573:I 0.00227211
10 *197:I *52:8 0.000337769
11 *197:I *58:52 0.000295819
12 *197:I *129:12 0.000955223
13 *197:I *129:20 0.000279829
14 *197:I *131:20 0.000161793
15 *197:I *132:8 5.57771e-05
16 *30:13 *556:A1 0.000350743
17 *30:13 *31:11 4.97906e-06
18 *194:I *30:13 0.000137582
19 *200:I *30:13 0
20 *523:D *30:13 5.52472e-05
21 *568:D *30:13 0
22 *11:15 *30:13 0.000734841
23 *19:11 *30:13 0
24 *21:17 *197:I 0.000195543
25 *21:17 *30:13 0.000191612
26 *22:13 *197:I 3.44395e-05
27 *22:13 *30:13 0.000238808
28 *29:9 *30:13 8.00142e-06
*RES
1 trim[8] *30:13 30.892 
2 *30:13 *552:D 9 
3 *30:13 *197:I 22.728 
*END

*D_NET *31 0.00733045
*CONN
*P trim[9] I
*I *199:I I *D gf180mcu_fd_sc_mcu7t5v0__antenna
*I *567:D I *D gf180mcu_fd_sc_mcu7t5v0__latrnq_1
*CAP
1 trim[9] 0.00225667
2 *199:I 0.000152582
3 *567:D 0
4 *31:11 0.00240925
5 *199:I *538:E 5.38595e-05
6 *199:I *567:E 0.000247057
7 *199:I *568:RN 2.14739e-05
8 *199:I *115:18 7.82526e-05
9 *31:11 *516:EN 0
10 *31:11 *530:ZN 0.000190584
11 *31:11 *531:I 3.38251e-05
12 *31:11 *533:EN 5.95433e-05
13 *31:11 *538:E 0.000689487
14 *31:11 *556:A1 2.02227e-05
15 *31:11 *568:RN 3.18325e-05
16 *31:11 *46:6 0.000128374
17 *31:11 *104:39 0.000330883
18 *31:11 *115:6 1.77648e-05
19 *31:11 *115:16 0.000189098
20 *31:11 *117:8 4.63499e-05
21 *196:I *199:I 0.000343529
22 *7:21 *31:11 2.48366e-05
23 *30:13 *31:11 4.97906e-06
*RES
1 trim[9] *31:11 21.192 
2 *31:11 *567:D 4.5 
3 *31:11 *199:I 15.372 
*END

*D_NET *32 0.00546802
*CONN
*I *573:I I *D gf180mcu_fd_sc_mcu7t5v0__clkinv_8
*I *572:ZN O *D gf180mcu_fd_sc_mcu7t5v0__clkinv_2
*CAP
1 *573:I 0.000427125
2 *572:ZN 0.000427125
3 *573:I *552:E 6.20303e-05
4 *573:I *553:E 0.000191446
5 *573:I *556:A1 0.000509988
6 *573:I *43:217 0.000106484
7 *573:I *131:20 0.000829193
8 *573:I *132:8 2.07977e-05
9 *197:I *573:I 0.00227211
10 *19:11 *573:I 9.5382e-05
11 *22:13 *573:I 0.000526333
*RES
1 *572:ZN *573:I 26.944 
*END

*D_NET *33 0.000780294
*CONN
*I *575:I I *D gf180mcu_fd_sc_mcu7t5v0__clkinv_8
*I *574:ZN O *D gf180mcu_fd_sc_mcu7t5v0__clkinv_2
*CAP
1 *575:I 0.000175725
2 *574:ZN 0.000175725
3 *575:I *440:I 1.26446e-05
4 clockp[1] *575:I 0.0004162
*RES
1 *574:ZN *575:I 10.664 
*END

*D_NET *34 0.0035534
*CONN
*I *426:I I *D gf180mcu_fd_sc_mcu7t5v0__invz_2
*I *424:Z O *D gf180mcu_fd_sc_mcu7t5v0__clkbuf_1
*CAP
1 *426:I 0.000783524
2 *424:Z 0.000783524
3 *426:I *425:I 0.000256274
4 *426:I *429:I 3.10787e-05
5 *426:I *554:I 0.000108287
6 *426:I *608:I 0.000271764
7 *426:I *620:RN 3.77594e-05
8 *426:I *623:A2 4.67771e-06
9 *426:I *43:8 0
10 *426:I *43:21 0
11 *426:I *43:49 0.000414284
12 *426:I *44:10 0.000262312
13 *426:I *71:8 0.000394118
14 *426:I *71:29 0.000205801
*RES
1 *424:Z *426:I 26.112 
*END

*D_NET *35 0.00305098
*CONN
*I *429:I I *D gf180mcu_fd_sc_mcu7t5v0__clkinv_2
*I *430:Z I *D gf180mcu_fd_sc_mcu7t5v0__hold
*I *426:ZN O *D gf180mcu_fd_sc_mcu7t5v0__invz_2
*I *428:ZN O *D gf180mcu_fd_sc_mcu7t5v0__invz_4
*CAP
1 *429:I 7.50295e-05
2 *430:Z 0.000254172
3 *426:ZN 0.000594581
4 *428:ZN 0.000773724
5 *426:ZN *427:I 5.05083e-05
6 *426:ZN *620:E 0.000509281
7 *426:ZN *47:20 0.000354127
8 *426:ZN *71:29 2.81965e-06
9 *429:I *425:I 0.000256274
10 *429:I *71:29 6.83697e-05
11 *430:Z *424:I 0
12 *430:Z *425:ZN 0
13 *430:Z *71:29 8.10143e-05
14 *426:I *429:I 3.10787e-05
*RES
1 *428:ZN *426:ZN 13.68 
2 *428:ZN *430:Z 10.144 
3 *430:Z *429:I 9.936 
*END

*D_NET *36 0.00280067
*CONN
*I *425:I I *D gf180mcu_fd_sc_mcu7t5v0__invz_2
*I *429:ZN O *D gf180mcu_fd_sc_mcu7t5v0__clkinv_2
*CAP
1 *425:I 0.000158754
2 *429:ZN 0.000158754
3 *425:I *424:I 0.000974
4 *425:I *545:I 0.000982818
5 *425:I *43:8 0
6 *425:I *71:29 1.37993e-05
7 *426:I *425:I 0.000256274
8 *429:I *425:I 0.000256274
*RES
1 *429:ZN *425:I 21.744 
*END

*D_NET *37 0.00771286
*CONN
*I *623:A1 I *D gf180mcu_fd_sc_mcu7t5v0__xor2_1
*I *423:I I *D gf180mcu_fd_sc_mcu7t5v0__clkbuf_2
*I *566:Z I *D gf180mcu_fd_sc_mcu7t5v0__hold
*I *557:I I *D gf180mcu_fd_sc_mcu7t5v0__clkbuf_2
*I *560:ZN O *D gf180mcu_fd_sc_mcu7t5v0__invz_2
*I *562:ZN O *D gf180mcu_fd_sc_mcu7t5v0__invz_8
*CAP
1 *623:A1 0.000222479
2 *423:I 0.000204035
3 *566:Z 0.000320035
4 *557:I 0.00053483
5 *560:ZN 0.00014613
6 *562:ZN 0.000276114
7 *37:34 0.000584679
8 *37:12 0.000777895
9 *37:6 0.00021118
10 *423:I *427:I 6.72822e-05
11 *423:I *560:I 0
12 *423:I *563:EN 4.79893e-05
13 *423:I *43:251 0
14 *557:I *448:RN 0.000438808
15 *557:I *562:I 0.000192871
16 *557:I *570:I 3.37332e-05
17 *557:I *572:I 5.29366e-05
18 *557:I *142:10 2.17565e-05
19 *560:ZN *546:ZN 1.0975e-05
20 *560:ZN *560:I 8.97565e-05
21 *560:ZN *562:I 1.07369e-05
22 *566:Z *426:EN 0.000406983
23 *566:Z *427:I 6.06732e-05
24 *566:Z *43:251 0
25 *623:A1 *554:I 3.34328e-05
26 *623:A1 *560:I 0.000194522
27 *623:A1 *570:I 0.000624866
28 *623:A1 *620:E 1.85523e-05
29 *623:A1 *621:E 5.77431e-06
30 *623:A1 *43:34 2.52289e-05
31 *37:6 *43:251 7.52395e-06
32 *37:12 *560:I 0.000231702
33 *37:12 *570:I 0.000991164
34 *196:I *37:12 0.00042999
35 *207:I *566:Z 5.28859e-05
36 *448:D *557:I 6.68141e-05
37 *8:15 *557:I 6.75681e-05
38 *8:15 *560:ZN 5.53196e-05
39 *9:9 *566:Z 3.4596e-05
40 *15:13 *566:Z 0.000161043
41 *23:15 *37:34 0
*RES
1 *562:ZN *37:6 5.02 
2 *37:6 *37:12 11.6 
3 *37:12 *560:ZN 5.644 
4 *37:12 *557:I 18.492 
5 *37:6 *37:34 0.52 
6 *37:34 *566:Z 7.724 
7 *37:34 *423:I 6.06 
8 *562:ZN *623:A1 20.288 
*END

*D_NET *38 0.00082834
*CONN
*I *425:EN I *D gf180mcu_fd_sc_mcu7t5v0__invz_2
*I *434:I I *D gf180mcu_fd_sc_mcu7t5v0__inv_1
*I *432:Q O *D gf180mcu_fd_sc_mcu7t5v0__latrnq_1
*CAP
1 *425:EN 0.000285794
2 *434:I 0
3 *432:Q 6.3159e-05
4 *38:6 0.000348953
5 *425:EN *427:EN 0
6 *425:EN *488:EN 1.71326e-05
7 *425:EN *495:I 0
8 *38:6 *488:EN 0
9 *9:9 *425:EN 0.0001133
10 *12:17 *425:EN 0
*RES
1 *432:Q *38:6 5.02 
2 *38:6 *434:I 4.5 
3 *38:6 *425:EN 6.892 
*END

*D_NET *39 0.00133224
*CONN
*I *426:EN I *D gf180mcu_fd_sc_mcu7t5v0__invz_2
*I *435:I I *D gf180mcu_fd_sc_mcu7t5v0__inv_1
*I *433:Q O *D gf180mcu_fd_sc_mcu7t5v0__latrnq_1
*CAP
1 *426:EN 0.000220069
2 *435:I 3.4265e-05
3 *433:Q 4.89633e-05
4 *39:8 0.000303297
5 *426:EN *546:I 0
6 *426:EN *43:49 7.38209e-05
7 *426:EN *43:251 0
8 *435:I *546:ZN 3.93698e-05
9 *39:8 *546:I 0
10 *39:8 *43:49 2.83159e-05
11 *39:8 *43:55 8.82081e-06
12 *207:I *426:EN 0.000115658
13 *207:I *435:I 4.63309e-05
14 *566:Z *426:EN 0.000406983
15 *620:D *426:EN 6.35093e-06
*RES
1 *433:Q *39:8 9.52 
2 *39:8 *435:I 9.52 
3 *39:8 *426:EN 11.288 
*END

*D_NET *40 0.000568366
*CONN
*I *427:EN I *D gf180mcu_fd_sc_mcu7t5v0__invz_8
*I *434:ZN O *D gf180mcu_fd_sc_mcu7t5v0__inv_1
*CAP
1 *427:EN 0.000226583
2 *434:ZN 0.000226583
3 *427:EN *428:EN 0.000115201
4 *425:EN *427:EN 0
5 *12:17 *427:EN 0
*RES
1 *434:ZN *427:EN 10.664 
*END

*D_NET *41 0.00171127
*CONN
*I *428:EN I *D gf180mcu_fd_sc_mcu7t5v0__invz_4
*I *435:ZN O *D gf180mcu_fd_sc_mcu7t5v0__inv_1
*CAP
1 *428:EN 0.000253446
2 *435:ZN 0.000253446
3 *428:EN *546:ZN 0
4 *207:I *428:EN 0.000122244
5 *427:EN *428:EN 0.000115201
6 *9:9 *428:EN 0.000966936
*RES
1 *435:ZN *428:EN 12.328 
*END

*D_NET *42 0.00331243
*CONN
*I *432:E I *D gf180mcu_fd_sc_mcu7t5v0__latrnq_1
*I *433:E I *D gf180mcu_fd_sc_mcu7t5v0__latrnq_1
*I *436:Z O *D gf180mcu_fd_sc_mcu7t5v0__xor2_1
*CAP
1 *432:E 0.000217945
2 *433:E 0.000562068
3 *436:Z 0.000344123
4 *432:E *532:EN 0.000258226
5 *432:E *541:A2 5.60123e-05
6 *432:E *546:EN 0.000428493
7 *432:E *43:59 7.77368e-05
8 *432:E *43:67 0.000276018
9 *433:E *541:A2 0.000653194
10 *433:E *545:ZN 0.000171322
11 *433:E *546:EN 7.47402e-05
12 *433:D *433:E 0.000192552
*RES
1 *436:Z *433:E 12.848 
2 *433:E *432:E 12.016 
*END

*D_NET *43 0.0546393
*CONN
*I *507:RN I *D gf180mcu_fd_sc_mcu7t5v0__latrnq_1
*I *462:RN I *D gf180mcu_fd_sc_mcu7t5v0__latrnq_1
*I *463:RN I *D gf180mcu_fd_sc_mcu7t5v0__latrnq_1
*I *508:RN I *D gf180mcu_fd_sc_mcu7t5v0__latrnq_1
*I *447:RN I *D gf180mcu_fd_sc_mcu7t5v0__latrnq_1
*I *448:RN I *D gf180mcu_fd_sc_mcu7t5v0__latrnq_1
*I *567:RN I *D gf180mcu_fd_sc_mcu7t5v0__latrnq_1
*I *568:RN I *D gf180mcu_fd_sc_mcu7t5v0__latrnq_1
*I *553:RN I *D gf180mcu_fd_sc_mcu7t5v0__latrnq_1
*I *552:RN I *D gf180mcu_fd_sc_mcu7t5v0__latrnq_1
*I *538:RN I *D gf180mcu_fd_sc_mcu7t5v0__latrnq_1
*I *537:RN I *D gf180mcu_fd_sc_mcu7t5v0__latrnq_1
*I *523:RN I *D gf180mcu_fd_sc_mcu7t5v0__latrnq_1
*I *522:RN I *D gf180mcu_fd_sc_mcu7t5v0__latrnq_1
*I *587:RN I *D gf180mcu_fd_sc_mcu7t5v0__latrnq_1
*I *478:RN I *D gf180mcu_fd_sc_mcu7t5v0__latrnq_1
*I *602:RN I *D gf180mcu_fd_sc_mcu7t5v0__latrnq_1
*I *601:RN I *D gf180mcu_fd_sc_mcu7t5v0__latrnq_1
*I *477:RN I *D gf180mcu_fd_sc_mcu7t5v0__latrnq_1
*I *586:RN I *D gf180mcu_fd_sc_mcu7t5v0__latrnq_1
*I *433:RN I *D gf180mcu_fd_sc_mcu7t5v0__latrnq_1
*I *432:RN I *D gf180mcu_fd_sc_mcu7t5v0__latrnq_1
*I *493:RN I *D gf180mcu_fd_sc_mcu7t5v0__latrnq_1
*I *492:RN I *D gf180mcu_fd_sc_mcu7t5v0__latrnq_1
*I *621:RN I *D gf180mcu_fd_sc_mcu7t5v0__latrnq_1
*I *617:I I *D gf180mcu_fd_sc_mcu7t5v0__dlyb_1
*I *620:RN I *D gf180mcu_fd_sc_mcu7t5v0__latrnq_1
*I *421:ZN O *D gf180mcu_fd_sc_mcu7t5v0__clkinv_1
*CAP
1 *507:RN 0.000236097
2 *462:RN 0.000515225
3 *463:RN 0
4 *508:RN 0.000500092
5 *447:RN 0.000396264
6 *448:RN 0.000216945
7 *567:RN 0
8 *568:RN 0.000305973
9 *553:RN 0.000163585
10 *552:RN 0
11 *538:RN 0
12 *537:RN 0
13 *523:RN 0
14 *522:RN 0
15 *587:RN 0
16 *478:RN 0
17 *602:RN 0
18 *601:RN 0
19 *477:RN 0.000234158
20 *586:RN 0
21 *433:RN 0
22 *432:RN 0
23 *493:RN 0
24 *492:RN 0.000673526
25 *621:RN 0.000162023
26 *617:I 0
27 *620:RN 0.000398022
28 *421:ZN 0
29 *43:303 0.000773398
30 *43:297 0.00107023
31 *43:251 0.000995244
32 *43:231 0.000305973
33 *43:217 0.00102496
34 *43:206 0.00109875
35 *43:160 0.000512368
36 *43:151 0.00035378
37 *43:149 0.000494493
38 *43:135 0.000630622
39 *43:133 0.000296393
40 *43:131 0.000655807
41 *43:115 0.000644025
42 *43:113 0.000515679
43 *43:105 0.000840822
44 *43:101 0.00101515
45 *43:67 0.000803365
46 *43:59 0.000947919
47 *43:57 0.000314869
48 *43:55 0.00119118
49 *43:49 0.00143735
50 *43:34 0.00130108
51 *43:21 0.000491508
52 *43:8 0.00115548
53 *43:4 0.00111374
54 *447:RN *546:ZN 0.00120065
55 *447:RN *563:EN 3.68494e-05
56 *447:RN *52:8 0.000381633
57 *448:RN *570:I 0.000115195
58 *448:RN *572:I 0
59 *462:RN *462:E 6.77605e-06
60 *462:RN *464:I 0
61 *462:RN *466:A2 6.10812e-06
62 *462:RN *476:Z 0
63 *462:RN *68:8 1.36398e-06
64 *477:RN *478:E 2.74728e-05
65 *477:RN *162:12 0
66 *492:RN *493:E 5.98136e-05
67 *492:RN *496:A2 0.000715079
68 *492:RN *515:EN 5.85454e-05
69 *492:RN *92:10 0.000276007
70 *507:RN *466:A1 0.000138284
71 *507:RN *476:Z 0.000185295
72 *507:RN *580:I 0.000295798
73 *507:RN *583:I 0.00013393
74 *507:RN *69:20 6.64873e-05
75 *508:RN *491:Z 0.000382979
76 *508:RN *498:I 6.95257e-05
77 *508:RN *511:A2 5.10086e-05
78 *553:RN *553:E 5.37778e-05
79 *568:RN *567:E 0.00086392
80 *568:RN *115:16 6.3804e-05
81 *568:RN *137:10 0.000103933
82 *620:RN *546:I 0
83 *620:RN *71:8 0
84 *620:RN *172:10 7.75876e-05
85 *621:RN *572:I 0.000151407
86 *621:RN *620:E 0.000267969
87 *621:RN *621:E 0.000554584
88 *43:8 *438:I 0.000488468
89 *43:8 *498:I 1.81425e-05
90 *43:8 *545:I 0
91 *43:8 *607:A2 7.86954e-06
92 *43:8 *612:EN 0.000203364
93 *43:8 *44:10 8.5094e-05
94 *43:21 *438:I 0.00057304
95 *43:21 *554:I 6.8199e-07
96 *43:34 *438:I 0.000179186
97 *43:34 *554:I 0.000739021
98 *43:34 *570:I 8.22864e-05
99 *43:34 *71:8 0.000207006
100 *43:49 *554:I 7.53682e-05
101 *43:49 *572:I 3.71363e-05
102 *43:49 *620:E 2.89653e-05
103 *43:49 *71:29 5.36847e-05
104 *43:55 *546:EN 6.342e-05
105 *43:57 *546:EN 7.77342e-05
106 *43:59 *546:EN 0.000271894
107 *43:67 *496:A2 0.000406701
108 *43:67 *515:EN 0.000556008
109 *43:67 *532:EN 0.000147929
110 *43:67 *539:I 8.30373e-05
111 *43:67 *541:A2 3.10673e-05
112 *43:67 *546:EN 8.21146e-06
113 *43:67 *591:I 1.0975e-05
114 *43:67 *125:10 0.000305617
115 *43:101 *532:I 3.43535e-05
116 *43:101 *535:Z 0.000161673
117 *43:101 *119:12 5.48137e-05
118 *43:105 *119:12 0.000143892
119 *43:113 *526:A2 2.74832e-05
120 *43:113 *531:I 0.000707061
121 *43:113 *531:ZN 0.000184113
122 *43:113 *537:E 8.3363e-05
123 *43:113 *538:E 0.00053093
124 *43:113 *590:A1 0.000455793
125 *43:115 *526:A2 0.00109919
126 *43:115 *590:A2 0.00107382
127 *43:131 *526:A2 0.00017298
128 *43:131 *533:EN 0.000125989
129 *43:131 *590:A2 3.4596e-05
130 *43:131 *82:16 0.000166443
131 *43:133 *533:EN 7.17602e-05
132 *43:135 *533:EN 0.000106694
133 *43:135 *579:EN 0.000491544
134 *43:135 *586:E 0.000213514
135 *43:135 *155:14 1.91879e-05
136 *43:149 *533:EN 0.000695259
137 *43:149 *601:E 8.79612e-05
138 *43:149 *77:10 0
139 *43:149 *157:10 6.52475e-06
140 *43:151 *478:E 0.000205517
141 *43:151 *533:EN 0.000226968
142 *43:151 *601:E 1.56424e-05
143 *43:160 *478:E 5.3258e-05
144 *43:160 *533:EN 2.06817e-05
145 *43:160 *601:E 0.000215267
146 *43:160 *162:12 0
147 *43:206 *467:I 2.11438e-05
148 *43:206 *538:E 0.000168211
149 *43:206 *567:E 1.23163e-05
150 *43:217 *467:I 4.4504e-06
151 *43:217 *553:E 1.57479e-05
152 *43:217 *556:A1 0.000266298
153 *43:217 *567:E 3.62028e-05
154 *43:217 *129:12 4.26789e-05
155 *43:217 *137:10 0
156 *43:251 *546:ZN 0.000251831
157 *43:251 *563:EN 8.14679e-05
158 *43:297 *466:A1 9.84747e-05
159 *43:297 *496:A2 0.000462468
160 *43:297 *580:I 0.000155991
161 *43:297 *581:I 3.08154e-05
162 *43:297 *583:I 0.00013585
163 *43:297 *591:I 0.00015417
164 *43:297 *605:A1 0.00153944
165 *43:297 *63:20 5.66717e-05
166 *43:303 *466:A2 1.53664e-05
167 *183:I *447:RN 2.33885e-05
168 *196:I *43:251 0.000314907
169 *197:I *447:RN 0.000337769
170 *199:I *568:RN 2.14739e-05
171 *201:I *43:149 0
172 *202:I *508:RN 0.000104752
173 *202:I *43:131 1.28577e-05
174 *207:I *43:251 1.78817e-06
175 *421:I *43:8 4.18042e-05
176 *423:I *43:251 0
177 *425:I *43:8 0
178 *426:EN *43:49 7.38209e-05
179 *426:EN *43:251 0
180 *426:I *620:RN 3.77594e-05
181 *426:I *43:8 0
182 *426:I *43:21 0
183 *426:I *43:49 0.000414284
184 *432:E *43:59 7.77368e-05
185 *432:E *43:67 0.000276018
186 *433:D *43:101 0.000320316
187 *462:D *462:RN 0
188 *463:D *462:RN 1.12609e-05
189 *463:D *43:297 0.00153325
190 *463:D *43:303 0.000176787
191 *523:D *43:131 5.57504e-05
192 *557:I *448:RN 0.000438808
193 *566:Z *43:251 0
194 *573:I *43:217 0.000106484
195 *587:D *43:131 0.000822658
196 *587:D *43:133 0.000151966
197 *587:D *43:135 7.60808e-05
198 *620:D *43:49 0
199 *623:A1 *43:34 2.52289e-05
200 *8:15 *447:RN 4.33745e-05
201 *8:15 *43:55 3.28181e-05
202 *8:15 *43:57 5.52911e-05
203 *8:15 *43:59 0.000260299
204 *8:15 *43:67 7.76931e-05
205 *9:9 *43:131 9.96253e-05
206 *10:13 *43:131 6.35093e-06
207 *12:17 *43:297 0.000167605
208 *13:13 *43:131 0
209 *14:13 *43:101 3.54009e-05
210 *15:13 *43:49 0.000366382
211 *15:13 *43:55 0.000451066
212 *15:13 *43:101 0.000153842
213 *15:13 *43:105 0.000265836
214 *17:9 *477:RN 6.0702e-05
215 *17:9 *43:160 5.3755e-05
216 *18:13 *43:206 3.17907e-05
217 *18:13 *43:217 5.62982e-05
218 *21:17 *568:RN 0
219 *21:17 *43:101 0.000482237
220 *26:15 *43:149 0.000243156
221 *27:13 *462:RN 6.8199e-07
222 *27:13 *43:149 0.000251973
223 *27:13 *43:303 0
224 *31:11 *568:RN 3.18325e-05
225 *37:6 *43:251 7.52395e-06
226 *39:8 *43:49 2.83159e-05
227 *39:8 *43:55 8.82081e-06
*RES
1 *421:ZN *43:4 4.5 
2 *43:4 *43:8 5.408 
3 *43:8 *620:RN 17.14 
4 *43:8 *43:21 1.56 
5 *43:21 *617:I 4.5 
6 *43:21 *43:34 12.744 
7 *43:34 *621:RN 6.684 
8 *43:34 *43:49 11.052 
9 *43:49 *43:55 7.828 
10 *43:55 *43:57 0.728 
11 *43:57 *43:59 3.016 
12 *43:59 *43:67 7.072 
13 *43:67 *492:RN 6.476 
14 *43:67 *493:RN 4.5 
15 *43:59 *432:RN 4.5 
16 *43:57 *433:RN 4.5 
17 *43:55 *43:101 11.884 
18 *43:101 *43:105 6.268 
19 *43:105 *43:113 14.408 
20 *43:113 *43:115 3.016 
21 *43:115 *43:131 23.408 
22 *43:131 *43:133 1.144 
23 *43:133 *43:135 3.016 
24 *43:135 *43:149 21.432 
25 *43:149 *43:151 1.144 
26 *43:151 *586:RN 4.5 
27 *43:151 *43:160 2.704 
28 *43:160 *477:RN 6.164 
29 *43:160 *601:RN 4.5 
30 *43:149 *602:RN 4.5 
31 *43:135 *478:RN 4.5 
32 *43:133 *587:RN 4.5 
33 *43:131 *522:RN 4.5 
34 *43:115 *523:RN 4.5 
35 *43:113 *537:RN 4.5 
36 *43:105 *43:206 1.976 
37 *43:206 *538:RN 4.5 
38 *43:206 *43:217 6.968 
39 *43:217 *552:RN 4.5 
40 *43:217 *553:RN 5.644 
41 *43:101 *43:231 4.5 
42 *43:231 *568:RN 7.828 
43 *43:231 *567:RN 4.5 
44 *43:49 *43:251 7.828 
45 *43:251 *448:RN 15.684 
46 *43:251 *447:RN 9.388 
47 *43:4 *508:RN 8.868 
48 *492:RN *43:297 18.568 
49 *43:297 *43:303 6.372 
50 *43:303 *463:RN 4.5 
51 *43:303 *462:RN 7.516 
52 *43:297 *507:RN 11.912 
*END

*D_NET *44 0.0165982
*CONN
*I *438:I I *D gf180mcu_fd_sc_mcu7t5v0__clkbuf_2
*I *425:ZN O *D gf180mcu_fd_sc_mcu7t5v0__invz_2
*I *431:Z I *D gf180mcu_fd_sc_mcu7t5v0__hold
*I *422:I I *D gf180mcu_fd_sc_mcu7t5v0__clkbuf_2
*I *590:A1 I *D gf180mcu_fd_sc_mcu7t5v0__xor2_1
*I *427:ZN O *D gf180mcu_fd_sc_mcu7t5v0__invz_8
*CAP
1 *438:I 0.000361612
2 *425:ZN 0.000114705
3 *431:Z 0.00110692
4 *422:I 7.50012e-05
5 *590:A1 0.000443831
6 *427:ZN 0.000978803
7 *44:18 0.00162183
8 *44:12 0.00251482
9 *44:10 0.0010368
10 *422:I *46:25 3.22108e-05
11 *422:I *115:16 2.16642e-05
12 *425:ZN *424:I 7.5403e-05
13 *431:Z *483:I 0.000227865
14 *431:Z *485:ZN 1.19663e-05
15 *431:Z *487:EN 7.27893e-05
16 *431:Z *487:I 6.39195e-05
17 *431:Z *488:EN 1.63544e-05
18 *431:Z *488:I 0.000405383
19 *431:Z *605:A1 0
20 *431:Z *81:33 5.24974e-05
21 *431:Z *95:6 0.000661448
22 *438:I *545:I 0
23 *438:I *547:EN 0
24 *438:I *607:A2 2.3245e-05
25 *438:I *610:EN 2.25463e-05
26 *590:A1 *467:I 0.000222506
27 *590:A1 *530:I 8.74985e-05
28 *590:A1 *537:E 4.08435e-05
29 *590:A1 *590:A2 0.000316564
30 *590:A1 *46:19 0.000562562
31 *590:A1 *125:10 5.20034e-05
32 *44:10 *424:I 0.000227302
33 *44:10 *546:I 0
34 *44:12 *424:I 2.11686e-05
35 *44:12 *545:I 1.95536e-05
36 *44:12 *546:I 0
37 *44:18 *536:Z 0.000539897
38 *44:18 *539:I 7.13312e-06
39 *44:18 *545:I 4.33796e-05
40 *44:18 *546:I 5.47986e-05
41 *44:18 *46:19 0.000139373
42 *44:18 *125:10 2.73778e-05
43 *189:I *431:Z 0.000186591
44 *426:I *44:10 0.000262312
45 *430:Z *425:ZN 0
46 *432:D *44:18 0.000273586
47 *523:D *590:A1 1.23478e-05
48 *9:9 *431:Z 0.00034486
49 *12:17 *590:A1 0.000478982
50 *12:17 *44:18 0.000634198
51 *14:13 *422:I 0
52 *15:13 *431:Z 0.000320177
53 *43:8 *438:I 0.000488468
54 *43:8 *44:10 8.5094e-05
55 *43:21 *438:I 0.00057304
56 *43:34 *438:I 0.000179186
57 *43:113 *590:A1 0.000455793
*RES
1 *427:ZN *44:10 14.408 
2 *44:10 *44:12 1.768 
3 *44:12 *44:18 11.128 
4 *44:18 *590:A1 14.616 
5 *44:18 *422:I 9.52 
6 *44:12 *431:Z 18.672 
7 *44:10 *425:ZN 9.728 
8 *427:ZN *438:I 12.64 
*END

*D_NET *45 0.0039872
*CONN
*I *436:A2 I *D gf180mcu_fd_sc_mcu7t5v0__xor2_1
*I *422:Z O *D gf180mcu_fd_sc_mcu7t5v0__clkbuf_2
*CAP
1 *436:A2 0.00103999
2 *422:Z 0.00103999
3 *436:A2 *527:I 0.000387113
4 *436:A2 *532:I 0.000433986
5 *436:A2 *535:Z 5.63044e-06
6 *436:A2 *545:ZN 2.357e-05
7 *436:A2 *560:EN 2.33885e-05
8 *436:A2 *569:I 7.23005e-05
9 *436:A2 *571:A1 9.35542e-06
10 *436:A2 *46:25 0.00086392
11 *12:17 *436:A2 0
12 *14:13 *436:A2 8.79612e-05
*RES
1 *422:Z *436:A2 26.008 
*END

*D_NET *46 0.00855442
*CONN
*I *536:Z I *D gf180mcu_fd_sc_mcu7t5v0__hold
*I *543:I I *D gf180mcu_fd_sc_mcu7t5v0__clkbuf_2
*I *436:A1 I *D gf180mcu_fd_sc_mcu7t5v0__xor2_1
*I *527:I I *D gf180mcu_fd_sc_mcu7t5v0__clkbuf_2
*I *530:ZN O *D gf180mcu_fd_sc_mcu7t5v0__invz_2
*I *532:ZN O *D gf180mcu_fd_sc_mcu7t5v0__invz_8
*CAP
1 *536:Z 9.78244e-05
2 *543:I 0
3 *436:A1 0
4 *527:I 0.000134011
5 *530:ZN 0.000141918
6 *532:ZN 0.00013058
7 *46:31 0.000302644
8 *46:25 0.000890202
9 *46:19 0.000967118
10 *46:6 0.000420223
11 *527:I *571:A1 0.000126289
12 *530:ZN *115:16 7.43088e-05
13 *530:ZN *121:14 5.91309e-05
14 *46:6 *115:16 7.27976e-05
15 *46:19 *125:10 6.28659e-05
16 *46:25 *535:Z 2.04597e-06
17 *46:25 *560:EN 0
18 *46:25 *569:I 0
19 *46:25 *115:16 6.21514e-05
20 *46:31 *142:10 0.000417168
21 *46:31 *145:12 0
22 *196:I *46:31 0.000778706
23 *422:I *46:25 3.22108e-05
24 *432:D *536:Z 0.000186931
25 *432:D *46:19 0.000137089
26 *436:A2 *527:I 0.000387113
27 *436:A2 *46:25 0.00086392
28 *590:A1 *46:19 0.000562562
29 *14:13 *46:25 0
30 *21:17 *46:25 0.00064638
31 *31:11 *530:ZN 0.000190584
32 *31:11 *46:6 0.000128374
33 *44:18 *536:Z 0.000539897
34 *44:18 *46:19 0.000139373
*RES
1 *532:ZN *46:6 5.644 
2 *46:6 *530:ZN 6.164 
3 *46:6 *46:19 6.476 
4 *46:19 *46:25 10.532 
5 *46:25 *46:31 11.184 
6 *46:31 *527:I 5.956 
7 *46:31 *436:A1 4.5 
8 *46:25 *543:I 4.5 
9 *46:19 *536:Z 10.56 
*END

*D_NET *47 0.00614699
*CONN
*I *428:I I *D gf180mcu_fd_sc_mcu7t5v0__invz_4
*I *424:I I *D gf180mcu_fd_sc_mcu7t5v0__clkbuf_1
*I *427:I I *D gf180mcu_fd_sc_mcu7t5v0__invz_8
*I *423:Z O *D gf180mcu_fd_sc_mcu7t5v0__clkbuf_2
*CAP
1 *428:I 0
2 *424:I 0.000444377
3 *427:I 0.000845904
4 *423:Z 0.000631441
5 *47:20 0.00065884
6 *424:I *545:I 0.000382027
7 *427:I *560:I 6.75181e-05
8 *427:I *620:E 0
9 *47:20 *71:29 0
10 *423:I *427:I 6.72822e-05
11 *425:I *424:I 0.000974
12 *425:ZN *424:I 7.5403e-05
13 *426:ZN *427:I 5.05083e-05
14 *426:ZN *47:20 0.000354127
15 *430:Z *424:I 0
16 *566:Z *427:I 6.06732e-05
17 *15:13 *424:I 7.73997e-05
18 *15:13 *427:I 0.00118069
19 *15:13 *47:20 2.83332e-05
20 *44:10 *424:I 0.000227302
21 *44:12 *424:I 2.11686e-05
*RES
1 *423:Z *427:I 14.72 
2 *427:I *47:20 6.58 
3 *47:20 *424:I 19.116 
4 *47:20 *428:I 4.5 
*END

*D_NET *48 0.00497248
*CONN
*I *441:I I *D gf180mcu_fd_sc_mcu7t5v0__invz_2
*I *439:Z O *D gf180mcu_fd_sc_mcu7t5v0__clkbuf_1
*CAP
1 *441:I 0.000421519
2 *439:Z 0.000421519
3 *441:I *437:I 0.000106908
4 *441:I *439:I 0.000398129
5 *441:I *440:ZN 0.000423046
6 *441:I *445:Z 5.13977e-05
7 *441:I *549:I 0.00151285
8 *441:I *555:I 0
9 *441:I *613:EN 0
10 *441:I *49:6 0.000139186
11 *441:I *56:12 0.00142052
12 *198:I *441:I 7.73997e-05
*RES
1 *439:Z *441:I 26.736 
*END

*D_NET *49 0.00288721
*CONN
*I *444:I I *D gf180mcu_fd_sc_mcu7t5v0__clkinv_2
*I *445:Z I *D gf180mcu_fd_sc_mcu7t5v0__hold
*I *441:ZN O *D gf180mcu_fd_sc_mcu7t5v0__invz_2
*I *443:ZN O *D gf180mcu_fd_sc_mcu7t5v0__invz_4
*CAP
1 *444:I 6.06099e-05
2 *445:Z 0.000263284
3 *441:ZN 0
4 *443:ZN 0.000426544
5 *49:6 0.000629219
6 *445:Z *555:I 0.000202022
7 *49:6 *437:I 0.000607156
8 *49:6 *440:ZN 0.000395148
9 *49:6 *443:I 9.50401e-06
10 *198:I *445:Z 0.000103136
11 *441:I *445:Z 5.13977e-05
12 *441:I *49:6 0.000139186
*RES
1 *443:ZN *49:6 8.348 
2 *49:6 *441:ZN 4.5 
3 *49:6 *445:Z 15.996 
4 *445:Z *444:I 9.52 
*END

*D_NET *50 0.00150758
*CONN
*I *440:I I *D gf180mcu_fd_sc_mcu7t5v0__invz_2
*I *444:ZN O *D gf180mcu_fd_sc_mcu7t5v0__clkinv_2
*CAP
1 *440:I 0.000449763
2 *444:ZN 0.000449763
3 *440:I *555:I 0.000219886
4 *440:I *622:I 1.78817e-06
5 *440:I *56:12 0.000217418
6 clockp[1] *440:I 0.000156319
7 *575:I *440:I 1.26446e-05
*RES
1 *444:ZN *440:I 22.784 
*END

*D_NET *51 0.000671514
*CONN
*I *449:I I *D gf180mcu_fd_sc_mcu7t5v0__inv_1
*I *440:EN I *D gf180mcu_fd_sc_mcu7t5v0__invz_2
*I *447:Q O *D gf180mcu_fd_sc_mcu7t5v0__latrnq_1
*CAP
1 *449:I 0
2 *440:EN 0.000208662
3 *447:Q 0.000102266
4 *51:6 0.000310928
5 *440:EN *549:I 1.29802e-05
6 *440:EN *555:I 3.05725e-05
7 *51:6 *559:I 6.10561e-06
*RES
1 *447:Q *51:6 5.228 
2 *51:6 *440:EN 14.436 
3 *51:6 *449:I 4.5 
*END

*D_NET *52 0.00714011
*CONN
*I *441:EN I *D gf180mcu_fd_sc_mcu7t5v0__invz_2
*I *450:I I *D gf180mcu_fd_sc_mcu7t5v0__inv_1
*I *448:Q O *D gf180mcu_fd_sc_mcu7t5v0__latrnq_1
*CAP
1 *441:EN 0.000256582
2 *450:I 0.000287282
3 *448:Q 0.000658303
4 *52:8 0.00120217
5 *441:EN *555:I 0.000404667
6 *441:EN *561:I 0.00085643
7 *450:I *546:EN 8.10026e-05
8 *450:I *561:EN 5.81438e-06
9 *450:I *561:I 0.000617599
10 *450:I *561:ZN 5.96941e-05
11 *52:8 *558:I 0.000158606
12 *52:8 *563:EN 0.000146714
13 *183:I *52:8 3.08154e-05
14 *197:I *52:8 0.000337769
15 *198:I *441:EN 5.62387e-05
16 *198:I *450:I 7.89888e-05
17 *447:RN *52:8 0.000381633
18 *23:15 *441:EN 0.000310596
19 *23:15 *450:I 0.00108643
20 *23:15 *52:8 0.000122775
*RES
1 *448:Q *52:8 14.512 
2 *52:8 *450:I 13.368 
3 *52:8 *441:EN 12.64 
*END

*D_NET *53 0.000896674
*CONN
*I *442:EN I *D gf180mcu_fd_sc_mcu7t5v0__invz_8
*I *449:ZN O *D gf180mcu_fd_sc_mcu7t5v0__inv_1
*CAP
1 *442:EN 0.000447443
2 *449:ZN 0.000447443
3 *442:EN *443:EN 0
4 *442:EN *443:I 1.78817e-06
*RES
1 *449:ZN *442:EN 11.808 
*END

*D_NET *54 0.00411487
*CONN
*I *443:EN I *D gf180mcu_fd_sc_mcu7t5v0__invz_4
*I *450:ZN O *D gf180mcu_fd_sc_mcu7t5v0__inv_1
*CAP
1 *443:EN 0.000789807
2 *450:ZN 0.000789807
3 *443:EN *437:I 0.000133209
4 *443:EN *549:I 5.53115e-05
5 *443:EN *555:I 9.03122e-05
6 *443:EN *558:I 0.000797054
7 *443:EN *560:I 9.84961e-06
8 *443:EN *58:52 0.000355275
9 *443:EN *147:12 0.000201316
10 *197:I *443:EN 0.000892924
11 *442:EN *443:EN 0
*RES
1 *450:ZN *443:EN 26.424 
*END

*D_NET *55 0.00304427
*CONN
*I *447:E I *D gf180mcu_fd_sc_mcu7t5v0__latrnq_1
*I *448:E I *D gf180mcu_fd_sc_mcu7t5v0__latrnq_1
*I *451:Z O *D gf180mcu_fd_sc_mcu7t5v0__xor2_1
*CAP
1 *447:E 6.97668e-05
2 *448:E 0.000412624
3 *451:Z 0
4 *55:4 0.000482391
5 *447:E *451:A1 0.000325477
6 *447:E *547:EN 0.000427061
7 *447:E *129:20 0.000418233
8 *448:E *546:EN 0.000183134
9 *448:E *561:ZN 2.33885e-05
10 *448:E *139:10 0.000316249
11 *8:15 *447:E 0.000325477
12 *8:15 *448:E 6.04667e-05
*RES
1 *451:Z *55:4 4.5 
2 *55:4 *448:E 8.244 
3 *55:4 *447:E 15.58 
*END

*D_NET *56 0.0243068
*CONN
*I *609:I I *D gf180mcu_fd_sc_mcu7t5v0__clkbuf_1
*I *612:I I *D gf180mcu_fd_sc_mcu7t5v0__invz_8
*I *605:A1 I *D gf180mcu_fd_sc_mcu7t5v0__xor2_1
*I *446:Z I *D gf180mcu_fd_sc_mcu7t5v0__hold
*I *613:I I *D gf180mcu_fd_sc_mcu7t5v0__invz_4
*I *440:ZN O *D gf180mcu_fd_sc_mcu7t5v0__invz_2
*I *437:I I *D gf180mcu_fd_sc_mcu7t5v0__clkbuf_2
*I *442:ZN O *D gf180mcu_fd_sc_mcu7t5v0__invz_8
*CAP
1 *609:I 0.000265272
2 *612:I 0
3 *605:A1 0.00109336
4 *446:Z 5.35824e-05
5 *613:I 3.38554e-05
6 *440:ZN 1.89583e-05
7 *437:I 0.000517352
8 *442:ZN 0.000460838
9 *56:62 0.00219365
10 *56:56 0.00177336
11 *56:45 0.000883534
12 *56:43 0.000536908
13 *56:12 0.000848537
14 *437:I *547:EN 0.000385441
15 *437:I *548:EN 0.00117943
16 *437:I *560:I 8.72247e-05
17 *437:I *572:I 0.000349853
18 *437:I *613:EN 0
19 *446:Z *500:EN 5.65061e-06
20 *446:Z *578:I 4.18042e-05
21 *446:Z *579:I 0.00016681
22 *605:A1 *466:A2 9.50401e-06
23 *605:A1 *485:ZN 0.000111254
24 *605:A1 *489:I 6.80166e-06
25 *605:A1 *524:I 1.23478e-05
26 *605:A1 *578:I 0.00237227
27 *605:A1 *580:I 0.0015218
28 *605:A1 *582:EN 6.47976e-05
29 *605:A1 *605:A2 0.000111066
30 *605:A1 *63:20 2.89824e-05
31 *605:A1 *93:10 9.39487e-05
32 *609:I *548:EN 0.000398723
33 *613:I *545:I 0
34 *613:I *549:I 5.47431e-06
35 *56:12 *549:I 2.76472e-05
36 *56:12 *555:I 0
37 *56:12 *622:I 3.22532e-06
38 *56:43 *549:I 0.000444655
39 *56:45 *549:I 0.000314957
40 *56:45 *611:I 0
41 *56:45 *611:ZN 5.45754e-05
42 *56:56 *545:I 0.000576992
43 *56:56 *549:I 0.000203364
44 *56:56 *606:A1 0
45 *56:56 *610:I 0
46 *56:56 *610:ZN 1.91527e-05
47 *56:56 *611:ZN 2.47364e-05
48 *56:56 *615:Z 6.69436e-05
49 *56:62 *491:Z 0
50 *56:62 *498:I 0
51 *56:62 *500:EN 7.77726e-05
52 *56:62 *501:EN 0.000196432
53 *56:62 *501:I 0
54 *56:62 *502:EN 0
55 *56:62 *502:I 0
56 *56:62 *503:EN 0.000419276
57 *56:62 *503:I 0
58 *56:62 *510:I 7.52592e-05
59 *56:62 *525:I 0.000146737
60 *56:62 *545:I 3.18325e-05
61 *56:62 *579:I 0.000229531
62 *431:Z *605:A1 0
63 *440:I *56:12 0.000217418
64 *441:I *437:I 0.000106908
65 *441:I *440:ZN 0.000423046
66 *441:I *56:12 0.00142052
67 *443:EN *437:I 0.000133209
68 *463:D *605:A1 0.00017298
69 *607:A1 *56:56 0.000582256
70 *607:A1 *56:62 0.000142384
71 *618:EN *56:56 0
72 *618:EN *56:62 2.08074e-05
73 *23:15 *437:I 0
74 *43:297 *605:A1 0.00153944
75 *49:6 *437:I 0.000607156
76 *49:6 *440:ZN 0.000395148
*RES
1 *442:ZN *56:12 17.66 
2 *56:12 *437:I 20.364 
3 *56:12 *440:ZN 5.644 
4 *442:ZN *56:43 5.852 
5 *56:43 *56:45 1.56 
6 *56:45 *613:I 4.812 
7 *56:45 *56:56 7.696 
8 *56:56 *56:62 9.048 
9 *56:62 *446:Z 5.02 
10 *56:62 *605:A1 36.644 
11 *56:56 *612:I 4.5 
12 *56:43 *609:I 15.892 
*END

*D_NET *57 0.00226693
*CONN
*I *451:A2 I *D gf180mcu_fd_sc_mcu7t5v0__xor2_1
*I *437:Z O *D gf180mcu_fd_sc_mcu7t5v0__clkbuf_2
*CAP
1 *451:A2 0.000137596
2 *437:Z 0.000137596
3 *451:A2 *546:ZN 0.000385441
4 *451:A2 *548:EN 0.000737647
5 *451:A2 *147:12 0.000734718
6 *8:15 *451:A2 0.000133934
*RES
1 *437:Z *451:A2 21.12 
*END

*D_NET *58 0.0144378
*CONN
*I *558:I I *D gf180mcu_fd_sc_mcu7t5v0__clkbuf_2
*I *451:A1 I *D gf180mcu_fd_sc_mcu7t5v0__xor2_1
*I *545:ZN O *D gf180mcu_fd_sc_mcu7t5v0__invz_2
*I *551:Z I *D gf180mcu_fd_sc_mcu7t5v0__hold
*I *542:I I *D gf180mcu_fd_sc_mcu7t5v0__clkbuf_2
*I *547:ZN O *D gf180mcu_fd_sc_mcu7t5v0__invz_8
*CAP
1 *558:I 0.00027235
2 *451:A1 0.000121262
3 *545:ZN 0.00151389
4 *551:Z 0.000409835
5 *542:I 0
6 *547:ZN 0.000600149
7 *58:52 0.000567988
8 *58:35 0.00184517
9 *58:10 0.00085308
10 *451:A1 *561:ZN 0.00060532
11 *545:ZN *532:EN 6.73961e-05
12 *545:ZN *532:I 7.27179e-05
13 *545:ZN *541:A2 0.00191968
14 *545:ZN *546:EN 1.71324e-06
15 *545:ZN *547:I 0.000194522
16 *545:ZN *561:EN 0.000640654
17 *545:ZN *562:EN 1.32185e-05
18 *545:ZN *569:I 0
19 *545:ZN *571:A1 0.000300911
20 *545:ZN *571:A2 0
21 *558:I *555:I 0.000143466
22 *58:10 *556:A2 0.00089487
23 *58:10 *129:12 0
24 *58:35 *561:EN 0.000137132
25 *58:52 *555:I 0.00011328
26 *58:52 *132:8 7.38209e-05
27 clockp[0] *545:ZN 0
28 clockp[0] *551:Z 0.000113016
29 clockp[0] *58:35 0
30 *183:I *451:A1 1.87108e-05
31 *197:I *58:52 0.000295819
32 *198:I *551:Z 0.000205515
33 *198:I *58:10 9.38256e-05
34 *433:E *545:ZN 0.000171322
35 *436:A2 *545:ZN 2.357e-05
36 *443:EN *558:I 0.000797054
37 *443:EN *58:52 0.000355275
38 *447:E *451:A1 0.000325477
39 *8:15 *451:A1 4.61456e-05
40 *14:13 *545:ZN 0
41 *23:15 *551:Z 0.00019015
42 *23:15 *558:I 0.000137132
43 *23:15 *58:10 0.000143791
44 *52:8 *558:I 0.000158606
*RES
1 *547:ZN *58:10 13.576 
2 *58:10 *542:I 9 
3 *58:10 *551:Z 11.704 
4 *551:Z *58:35 5.644 
5 *58:35 *545:ZN 18.852 
6 *58:35 *58:52 7.308 
7 *58:52 *451:A1 10.768 
8 *58:52 *558:I 12.536 
*END

*D_NET *59 0.00720579
*CONN
*I *439:I I *D gf180mcu_fd_sc_mcu7t5v0__clkbuf_1
*I *442:I I *D gf180mcu_fd_sc_mcu7t5v0__invz_8
*I *443:I I *D gf180mcu_fd_sc_mcu7t5v0__invz_4
*I *438:Z O *D gf180mcu_fd_sc_mcu7t5v0__clkbuf_2
*CAP
1 *439:I 7.06199e-05
2 *442:I 0
3 *443:I 0.000330673
4 *438:Z 0.000370602
5 *59:10 0.000379931
6 *59:8 0.00049048
7 *439:I *544:I 0.000629831
8 *439:I *549:I 0.000441747
9 *443:I *544:I 3.35294e-05
10 *443:I *547:EN 0.0006688
11 *443:I *549:I 0.000761151
12 *443:I *560:I 1.70372e-05
13 *59:8 *549:I 0.000226786
14 *59:8 *622:I 0.000557671
15 *59:8 *173:12 0.00040062
16 *59:10 *544:I 0.000405178
17 *59:10 *549:I 0.00101171
18 *441:I *439:I 0.000398129
19 *442:EN *443:I 1.78817e-06
20 *49:6 *443:I 9.50401e-06
*RES
1 *438:Z *59:8 13.264 
2 *59:8 *59:10 2.6 
3 *59:10 *443:I 12.536 
4 *59:10 *442:I 9 
5 *59:8 *439:I 12.848 
*END

*D_NET *60 0.00235025
*CONN
*I *456:I I *D gf180mcu_fd_sc_mcu7t5v0__invz_2
*I *454:Z O *D gf180mcu_fd_sc_mcu7t5v0__clkbuf_1
*CAP
1 *456:I 0.000495106
2 *454:Z 0.000495106
3 *456:I *455:ZN 0.000134931
4 *456:I *456:ZN 8.56628e-05
5 *456:I *593:I 0
6 *456:I *597:EN 0.000137132
7 *456:I *61:17 0.00100231
*RES
1 *454:Z *456:I 13.888 
*END

*D_NET *61 0.00305178
*CONN
*I *456:ZN O *D gf180mcu_fd_sc_mcu7t5v0__invz_2
*I *460:Z I *D gf180mcu_fd_sc_mcu7t5v0__hold
*I *459:I I *D gf180mcu_fd_sc_mcu7t5v0__clkinv_2
*I *458:ZN O *D gf180mcu_fd_sc_mcu7t5v0__invz_4
*CAP
1 *456:ZN 0.000133158
2 *460:Z 0
3 *459:I 1.26954e-05
4 *458:ZN 0
5 *61:17 0.000453878
6 *61:4 0.000333416
7 *456:ZN *455:ZN 5.13977e-05
8 *456:ZN *69:10 8.21146e-06
9 *459:I *593:I 0.00061761
10 *459:I *597:EN 0.000116466
11 *61:17 *455:ZN 1.71324e-06
12 *61:17 *69:10 1.94324e-05
13 *201:I *459:I 0.000215829
14 *456:I *456:ZN 8.56628e-05
15 *456:I *61:17 0.00100231
*RES
1 *458:ZN *61:4 4.5 
2 *61:4 *459:I 15.06 
3 *61:4 *61:17 3.016 
4 *61:17 *460:Z 4.5 
5 *61:17 *456:ZN 6.372 
*END

*D_NET *62 0.00253316
*CONN
*I *455:I I *D gf180mcu_fd_sc_mcu7t5v0__invz_2
*I *459:ZN O *D gf180mcu_fd_sc_mcu7t5v0__clkinv_2
*CAP
1 *455:I 0.000140015
2 *459:ZN 0.000140015
3 *455:I *454:I 0.000614671
4 *455:I *593:I 0.000325477
5 *455:I *595:I 1.07369e-05
6 *455:I *597:EN 0
7 *455:I *603:I 0.00109524
8 *203:I *455:I 0.000207006
*RES
1 *459:ZN *455:I 21.744 
*END

*D_NET *63 0.0153008
*CONN
*I *594:ZN O *D gf180mcu_fd_sc_mcu7t5v0__invz_2
*I *453:I I *D gf180mcu_fd_sc_mcu7t5v0__clkbuf_2
*I *600:Z I *D gf180mcu_fd_sc_mcu7t5v0__hold
*I *496:A1 I *D gf180mcu_fd_sc_mcu7t5v0__xor2_1
*I *591:I I *D gf180mcu_fd_sc_mcu7t5v0__clkbuf_2
*I *596:ZN O *D gf180mcu_fd_sc_mcu7t5v0__invz_8
*CAP
1 *594:ZN 0
2 *453:I 0.000305799
3 *600:Z 5.42564e-05
4 *496:A1 0
5 *591:I 0.000509666
6 *596:ZN 0.000599877
7 *63:36 0.000966131
8 *63:20 0.00170833
9 *63:16 0.00191292
10 *63:10 0.000708057
11 *453:I *458:EN 0.000214048
12 *453:I *468:I 8.42801e-05
13 *453:I *595:I 4.19394e-05
14 *453:I *72:8 7.16355e-05
15 *453:I *84:8 6.17457e-05
16 *591:I *496:A2 0.000218821
17 *591:I *541:A1 0.000372387
18 *591:I *93:16 0.000990956
19 *600:Z *465:I 0
20 *63:10 *479:I 8.73444e-05
21 *63:10 *581:I 6.78926e-05
22 *63:10 *594:I 0.000111263
23 *63:10 *159:6 3.29341e-05
24 *63:10 *159:12 4.7159e-05
25 *63:10 *167:23 6.32895e-05
26 *63:16 *594:I 0.000103788
27 *63:16 *595:I 0.00010585
28 *63:16 *76:12 0.000139799
29 *63:16 *159:12 1.60338e-05
30 *63:20 *470:I 3.75554e-06
31 *63:20 *472:EN 0
32 *63:20 *473:EN 5.01832e-05
33 *63:20 *479:I 0
34 *63:20 *480:I 1.40331e-05
35 *63:20 *581:I 0
36 *63:20 *596:I 0.000131758
37 *63:20 *605:A2 2.7353e-05
38 *63:20 *76:12 5.38178e-06
39 *63:20 *165:10 0.00016014
40 *63:36 *472:I 6.91476e-05
41 *63:36 *595:I 0.000258465
42 *63:36 *84:8 0.000146676
43 *188:I *63:36 0.00010195
44 *203:I *453:I 0.000761756
45 *203:I *63:36 0.00025305
46 *462:D *63:36 0.00103585
47 *605:A1 *63:20 2.89824e-05
48 *8:15 *591:I 0.000325477
49 *12:17 *591:I 6.65754e-05
50 *12:17 *63:20 4.50662e-05
51 *24:9 *63:16 0.0010029
52 *24:9 *63:36 0.000608792
53 *26:15 *63:10 0.000385441
54 *43:67 *591:I 1.0975e-05
55 *43:297 *591:I 0.00015417
56 *43:297 *63:20 5.66717e-05
*RES
1 *596:ZN *63:10 9.18 
2 *63:10 *63:16 7.412 
3 *63:16 *63:20 12.3 
4 *63:20 *591:I 10.324 
5 *63:20 *496:A1 4.5 
6 *63:16 *63:36 7.592 
7 *63:36 *600:Z 9.312 
8 *63:36 *453:I 13.784 
9 *63:10 *594:ZN 4.5 
*END

*D_NET *64 0.00575096
*CONN
*I *455:EN I *D gf180mcu_fd_sc_mcu7t5v0__invz_2
*I *464:I I *D gf180mcu_fd_sc_mcu7t5v0__inv_1
*I *462:Q O *D gf180mcu_fd_sc_mcu7t5v0__latrnq_1
*CAP
1 *455:EN 0.000400921
2 *464:I 0.000278534
3 *462:Q 0.000679455
4 *455:EN *457:EN 0.000197059
5 *455:EN *458:EN 0.00055766
6 *455:EN *465:I 8.81493e-05
7 *455:EN *468:I 0.000160672
8 *455:EN *581:EN 0.000198183
9 *455:EN *593:I 0.000124423
10 *464:I *476:Z 0.000102867
11 *464:I *596:EN 0.00148152
12 *204:I *464:I 0.00148152
13 *462:RN *464:I 0
*RES
1 *462:Q *464:I 22.992 
2 *462:Q *455:EN 22.576 
*END

*D_NET *65 0.00289591
*CONN
*I *456:EN I *D gf180mcu_fd_sc_mcu7t5v0__invz_2
*I *465:I I *D gf180mcu_fd_sc_mcu7t5v0__inv_1
*I *463:Q O *D gf180mcu_fd_sc_mcu7t5v0__latrnq_1
*CAP
1 *456:EN 0.000133342
2 *465:I 0.00103441
3 *463:Q 0.00116775
4 *456:EN *596:EN 0.000209505
5 *465:I *458:EN 1.20252e-05
6 *465:I *468:I 0
7 *465:I *476:Z 0.000250736
8 *455:EN *465:I 8.81493e-05
9 *600:Z *465:I 0
*RES
1 *463:Q *465:I 15.448 
2 *463:Q *456:EN 10.144 
*END

*D_NET *66 0.00324793
*CONN
*I *457:EN I *D gf180mcu_fd_sc_mcu7t5v0__invz_8
*I *464:ZN O *D gf180mcu_fd_sc_mcu7t5v0__inv_1
*CAP
1 *457:EN 0.000560775
2 *464:ZN 0.000560775
3 *457:EN *462:E 1.80704e-05
4 *457:EN *471:I 3.22108e-05
5 *457:EN *581:EN 0.00165361
6 *457:EN *593:I 0.000193223
7 *457:EN *81:33 0
8 *455:EN *457:EN 0.000197059
9 *462:D *457:EN 3.22108e-05
*RES
1 *464:ZN *457:EN 23.616 
*END

*D_NET *67 0.00273738
*CONN
*I *458:EN I *D gf180mcu_fd_sc_mcu7t5v0__invz_4
*I *465:ZN O *D gf180mcu_fd_sc_mcu7t5v0__inv_1
*CAP
1 *458:EN 0.000224295
2 *465:ZN 0.000224295
3 *458:EN *468:I 0.000911591
4 *458:EN *595:I 0.00014584
5 *458:EN *84:8 0.000447626
6 *453:I *458:EN 0.000214048
7 *455:EN *458:EN 0.00055766
8 *465:I *458:EN 1.20252e-05
*RES
1 *465:ZN *458:EN 22.576 
*END

*D_NET *68 0.00128586
*CONN
*I *463:E I *D gf180mcu_fd_sc_mcu7t5v0__latrnq_1
*I *462:E I *D gf180mcu_fd_sc_mcu7t5v0__latrnq_1
*I *466:Z O *D gf180mcu_fd_sc_mcu7t5v0__xor2_1
*CAP
1 *463:E 3.6366e-05
2 *462:E 0.000145276
3 *466:Z 0.000351749
4 *68:8 0.000533391
5 *68:8 *485:ZN 0
6 *457:EN *462:E 1.80704e-05
7 *462:RN *462:E 6.77605e-06
8 *462:RN *68:8 1.36398e-06
9 *463:D *68:8 0.000192871
*RES
1 *466:Z *68:8 6.996 
2 *68:8 *462:E 5.228 
3 *68:8 *463:E 4.812 
*END

*D_NET *69 0.0139342
*CONN
*I *461:Z I *D gf180mcu_fd_sc_mcu7t5v0__hold
*I *455:ZN O *D gf180mcu_fd_sc_mcu7t5v0__invz_2
*I *468:I I *D gf180mcu_fd_sc_mcu7t5v0__clkbuf_2
*I *452:I I *D gf180mcu_fd_sc_mcu7t5v0__clkbuf_2
*I *511:A1 I *D gf180mcu_fd_sc_mcu7t5v0__xor2_1
*I *457:ZN O *D gf180mcu_fd_sc_mcu7t5v0__invz_8
*CAP
1 *461:Z 6.30946e-05
2 *455:ZN 0.000636945
3 *468:I 0.000849214
4 *452:I 0.000439479
5 *511:A1 0
6 *457:ZN 0.000642668
7 *69:20 0.000706684
8 *69:14 0.00120277
9 *69:12 0.000779295
10 *69:10 0.000761763
11 *452:I *466:A2 0.000724917
12 *452:I *497:I 0.000293957
13 *452:I *508:E 8.00947e-05
14 *452:I *511:A2 0.000422163
15 *452:I *104:25 3.59156e-05
16 *452:I *104:39 0.000423046
17 *455:ZN *457:I 8.27533e-05
18 *455:ZN *72:21 7.11701e-05
19 *461:Z *578:I 1.12327e-05
20 *461:Z *580:I 5.78216e-06
21 *468:I *457:I 6.39417e-05
22 *468:I *476:Z 0
23 *468:I *72:8 5.81438e-06
24 *468:I *72:21 2.01162e-05
25 *69:10 *581:EN 3.07277e-05
26 *69:10 *588:I 1.01781e-05
27 *69:10 *589:I 0
28 *69:10 *596:EN 0.000118776
29 *69:12 *589:I 0
30 *69:12 *596:EN 2.63347e-05
31 *69:12 *99:12 4.17589e-06
32 *69:14 *580:I 0.000534088
33 *69:14 *596:EN 0.000119552
34 *69:14 *99:12 4.59575e-05
35 *69:20 *476:Z 6.64924e-05
36 *69:20 *580:I 0.00101466
37 *69:20 *596:EN 0.000162943
38 *191:I *452:I 0.000869429
39 *191:I *69:20 0.000476175
40 *193:I *452:I 0.000427051
41 *202:I *452:I 2.37133e-06
42 *453:I *468:I 8.42801e-05
43 *455:EN *468:I 0.000160672
44 *456:I *455:ZN 0.000134931
45 *456:ZN *455:ZN 5.13977e-05
46 *456:ZN *69:10 8.21146e-06
47 *458:EN *468:I 0.000911591
48 *465:I *468:I 0
49 *507:RN *69:20 6.64873e-05
50 *27:13 *69:20 0.000263714
51 *61:17 *455:ZN 1.71324e-06
52 *61:17 *69:10 1.94324e-05
*RES
1 *457:ZN *69:10 13.576 
2 *69:10 *69:12 0.52 
3 *69:12 *69:14 1.976 
4 *69:14 *69:20 9.076 
5 *69:20 *511:A1 4.5 
6 *69:20 *452:I 20.26 
7 *69:14 *468:I 15.968 
8 *69:12 *455:ZN 14.096 
9 *69:10 *461:Z 9.52 
*END

*D_NET *70 0.00464747
*CONN
*I *466:A2 I *D gf180mcu_fd_sc_mcu7t5v0__xor2_1
*I *452:Z O *D gf180mcu_fd_sc_mcu7t5v0__clkbuf_2
*CAP
1 *466:A2 0.000952951
2 *452:Z 0.000952951
3 *466:A2 *483:I 0
4 *466:A2 *486:I 1.36398e-06
5 *466:A2 *489:I 0.000900949
6 *466:A2 *507:E 9.0358e-05
7 *466:A2 *508:E 0.000142547
8 *466:A2 *524:I 0.000506969
9 *466:A2 *71:29 1.40331e-05
10 *466:A2 *104:39 0.00029601
11 *191:I *466:A2 3.99399e-06
12 *452:I *466:A2 0.000724917
13 *462:RN *466:A2 6.10812e-06
14 *463:D *466:A2 3.57634e-06
15 *508:D *466:A2 1.63544e-05
16 *605:A1 *466:A2 9.50401e-06
17 *27:13 *466:A2 9.5197e-06
18 *43:303 *466:A2 1.53664e-05
*RES
1 *452:Z *466:A2 17.84 
*END

*D_NET *71 0.0261195
*CONN
*I *572:I I *D gf180mcu_fd_sc_mcu7t5v0__clkinv_2
*I *577:I I *D gf180mcu_fd_sc_mcu7t5v0__clkbuf_2
*I *466:A1 I *D gf180mcu_fd_sc_mcu7t5v0__xor2_1
*I *608:I I *D gf180mcu_fd_sc_mcu7t5v0__clkbuf_2
*I *606:Z O *D gf180mcu_fd_sc_mcu7t5v0__and2_2
*CAP
1 *572:I 0.00257895
2 *577:I 0.00294825
3 *466:A1 5.77127e-05
4 *608:I 1.66709e-05
5 *606:Z 0.0004718
6 *71:29 0.0058088
7 *71:19 0.00538179
8 *71:8 0.000488471
9 *466:A1 *580:I 0.000246666
10 *572:I *547:EN 0.000139042
11 *572:I *548:EN 0.0006776
12 *572:I *556:A2 0
13 *572:I *560:I 0
14 *572:I *621:E 3.14958e-05
15 *572:I *623:A2 0.00019482
16 *572:I *137:21 1.90661e-05
17 *572:I *145:12 0.000106133
18 *572:I *147:12 0.000976478
19 *577:I *472:EN 0.000101062
20 *577:I *583:I 0.000188337
21 *577:I *589:I 0.000223155
22 *608:I *554:I 0.000271764
23 *71:8 *554:I 0.000513523
24 *71:8 *606:A2 0.000152316
25 *71:8 *172:10 0
26 *71:29 *620:E 0
27 *71:29 *623:A2 3.22108e-05
28 *202:I *71:29 2.44247e-05
29 *425:I *71:29 1.37993e-05
30 *426:I *608:I 0.000271764
31 *426:I *71:8 0.000394118
32 *426:I *71:29 0.000205801
33 *426:ZN *71:29 2.81965e-06
34 *429:I *71:29 6.83697e-05
35 *430:Z *71:29 8.10143e-05
36 *437:I *572:I 0.000349853
37 *448:D *572:I 0.0010394
38 *448:RN *572:I 0
39 *466:A2 *71:29 1.40331e-05
40 *507:RN *466:A1 0.000138284
41 *508:D *71:29 0.000377613
42 *557:I *572:I 5.29366e-05
43 *568:D *572:I 0.000182845
44 *620:RN *71:8 0
45 *621:D *572:I 0.000129834
46 *621:RN *572:I 0.000151407
47 *13:13 *577:I 6.77187e-05
48 *22:13 *572:I 0.000531079
49 *43:34 *71:8 0.000207006
50 *43:49 *572:I 3.71363e-05
51 *43:49 *71:29 5.36847e-05
52 *43:297 *466:A1 9.84747e-05
53 *47:20 *71:29 0
*RES
1 *606:Z *71:8 14.512 
2 *71:8 *608:I 9.728 
3 *71:8 *71:19 4.5 
4 *71:19 *71:29 24.912 
5 *71:29 *466:A1 14.228 
6 *71:29 *577:I 30.399 
7 *71:19 *572:I 36.172 
*END

*D_NET *72 0.0034918
*CONN
*I *458:I I *D gf180mcu_fd_sc_mcu7t5v0__invz_4
*I *457:I I *D gf180mcu_fd_sc_mcu7t5v0__invz_8
*I *454:I I *D gf180mcu_fd_sc_mcu7t5v0__clkbuf_1
*I *453:Z O *D gf180mcu_fd_sc_mcu7t5v0__clkbuf_2
*CAP
1 *458:I 0
2 *457:I 0.000249008
3 *454:I 2.34467e-05
4 *453:Z 0.000240231
5 *72:21 0.00047868
6 *72:8 0.000493349
7 *454:I *603:I 0.000137027
8 *72:8 *597:EN 0
9 *72:21 *597:EN 0
10 *203:I *454:I 0.000939953
11 *453:I *72:8 7.16355e-05
12 *455:I *454:I 0.000614671
13 *455:ZN *457:I 8.27533e-05
14 *455:ZN *72:21 7.11701e-05
15 *468:I *457:I 6.39417e-05
16 *468:I *72:8 5.81438e-06
17 *468:I *72:21 2.01162e-05
*RES
1 *453:Z *72:8 6.164 
2 *72:8 *454:I 15.892 
3 *72:8 *72:21 1.56 
4 *72:21 *457:I 6.684 
5 *72:21 *458:I 4.5 
*END

*D_NET *73 0.00345868
*CONN
*I *471:I I *D gf180mcu_fd_sc_mcu7t5v0__invz_2
*I *469:Z O *D gf180mcu_fd_sc_mcu7t5v0__clkbuf_1
*CAP
1 *471:I 0.000563712
2 *469:Z 0.000563712
3 *471:I *469:I 5.63044e-06
4 *471:I *472:I 0.000896832
5 *471:I *473:I 0.00014211
6 *471:I *474:I 0.000241763
7 *471:I *74:6 5.63044e-06
8 *471:I *74:10 1.00283e-05
9 *471:I *81:33 0
10 *457:EN *471:I 3.22108e-05
11 *462:D *471:I 0.000997047
*RES
1 *469:Z *471:I 15.448 
*END

*D_NET *74 0.00472778
*CONN
*I *475:Z I *D gf180mcu_fd_sc_mcu7t5v0__hold
*I *471:ZN O *D gf180mcu_fd_sc_mcu7t5v0__invz_2
*I *474:I I *D gf180mcu_fd_sc_mcu7t5v0__clkinv_2
*I *473:ZN O *D gf180mcu_fd_sc_mcu7t5v0__invz_4
*CAP
1 *475:Z 0
2 *471:ZN 0
3 *474:I 0.000714166
4 *473:ZN 0.000254072
5 *74:10 0.000886518
6 *74:6 0.000426424
7 *474:I *469:I 0.000171408
8 *474:I *471:EN 7.59361e-05
9 *474:I *472:I 0.000975933
10 *474:I *581:EN 0.000761151
11 *474:I *593:I 0.00010492
12 *474:I *81:33 3.80112e-05
13 *74:6 *473:I 6.18147e-05
14 *74:10 *473:I 0
15 *471:I *474:I 0.000241763
16 *471:I *74:6 5.63044e-06
17 *471:I *74:10 1.00283e-05
*RES
1 *473:ZN *74:6 6.06 
2 *74:6 *74:10 1.456 
3 *74:10 *474:I 21.3 
4 *74:10 *471:ZN 4.5 
5 *74:6 *475:Z 4.5 
*END

*D_NET *75 0.00147643
*CONN
*I *470:I I *D gf180mcu_fd_sc_mcu7t5v0__invz_2
*I *474:ZN O *D gf180mcu_fd_sc_mcu7t5v0__clkinv_2
*CAP
1 *470:I 0.000284989
2 *474:ZN 0.000284989
3 *470:I *470:ZN 0.000247057
4 *470:I *471:EN 7.45804e-06
5 *470:I *472:EN 0.000476164
6 *470:I *473:EN 2.14739e-05
7 *470:I *480:I 1.40331e-05
8 *470:I *596:I 0.000125251
9 *470:I *81:33 1.12609e-05
10 *63:20 *470:I 3.75554e-06
*RES
1 *474:ZN *470:I 11.6 
*END

*D_NET *76 0.00640364
*CONN
*I *470:EN I *D gf180mcu_fd_sc_mcu7t5v0__invz_2
*I *479:I I *D gf180mcu_fd_sc_mcu7t5v0__inv_1
*I *477:Q O *D gf180mcu_fd_sc_mcu7t5v0__latrnq_1
*CAP
1 *470:EN 0
2 *479:I 0.000771819
3 *477:Q 0.000592162
4 *76:12 0.00136398
5 *479:I *581:I 0.00107879
6 *479:I *594:I 6.52288e-06
7 *479:I *165:10 0.00011601
8 *479:I *167:23 2.33885e-05
9 *76:12 *481:A2 0.000356371
10 *76:12 *594:I 2.34155e-05
11 *76:12 *595:I 0.000367043
12 *76:12 *82:16 0.00116558
13 *24:9 *76:12 0.000306032
14 *63:10 *479:I 8.73444e-05
15 *63:16 *76:12 0.000139799
16 *63:20 *479:I 0
17 *63:20 *76:12 5.38178e-06
*RES
1 *477:Q *76:12 20.988 
2 *76:12 *479:I 10.74 
3 *76:12 *470:EN 4.5 
*END

*D_NET *77 0.00917814
*CONN
*I *471:EN I *D gf180mcu_fd_sc_mcu7t5v0__invz_2
*I *480:I I *D gf180mcu_fd_sc_mcu7t5v0__inv_1
*I *478:Q O *D gf180mcu_fd_sc_mcu7t5v0__latrnq_1
*CAP
1 *471:EN 0.000603256
2 *480:I 5.39348e-05
3 *478:Q 0.000785297
4 *77:10 0.00144249
5 *471:EN *469:I 1.40331e-05
6 *471:EN *593:I 0.00062411
7 *471:EN *597:EN 0.000704704
8 *471:EN *81:33 7.51586e-05
9 *471:EN *167:23 0.000116476
10 *77:10 *579:EN 0.000206996
11 *77:10 *585:Z 1.95308e-05
12 *77:10 *588:I 0
13 *77:10 *597:EN 0.000355286
14 *77:10 *601:E 0
15 *77:10 *151:8 0.000569975
16 *77:10 *162:12 0.000346997
17 *77:10 *167:12 0.00143953
18 *77:10 *167:23 0.00108643
19 *185:I *471:EN 3.26036e-05
20 *201:I *77:10 0.000496984
21 *470:I *471:EN 7.45804e-06
22 *470:I *480:I 1.40331e-05
23 *474:I *471:EN 7.59361e-05
24 *26:15 *77:10 9.28876e-05
25 *43:149 *77:10 0
26 *63:20 *480:I 1.40331e-05
*RES
1 *478:Q *77:10 19.608 
2 *77:10 *480:I 9.312 
3 *77:10 *471:EN 14.2 
*END

*D_NET *78 0.00342193
*CONN
*I *472:EN I *D gf180mcu_fd_sc_mcu7t5v0__invz_8
*I *479:ZN O *D gf180mcu_fd_sc_mcu7t5v0__inv_1
*CAP
1 *472:EN 0.000661197
2 *479:ZN 0.000661197
3 *472:EN *580:I 0.00109524
4 *472:EN *596:I 0.000110958
5 *472:EN *81:33 0.000156075
6 *470:I *472:EN 0.000476164
7 *577:I *472:EN 0.000101062
8 *27:13 *472:EN 0.000160039
9 *63:20 *472:EN 0
*RES
1 *479:ZN *472:EN 24.864 
*END

*D_NET *79 0.00221469
*CONN
*I *473:EN I *D gf180mcu_fd_sc_mcu7t5v0__invz_4
*I *480:ZN O *D gf180mcu_fd_sc_mcu7t5v0__inv_1
*CAP
1 *473:EN 0.000153992
2 *480:ZN 0.000153992
3 *473:EN *470:ZN 0.000256285
4 *203:I *473:EN 0.000772908
5 *462:D *473:EN 0.000522341
6 *470:I *473:EN 2.14739e-05
7 *24:9 *473:EN 0.00028351
8 *63:20 *473:EN 5.01832e-05
*RES
1 *480:ZN *473:EN 21.12 
*END

*D_NET *80 0.00697253
*CONN
*I *478:E I *D gf180mcu_fd_sc_mcu7t5v0__latrnq_1
*I *477:E I *D gf180mcu_fd_sc_mcu7t5v0__latrnq_1
*I *481:Z O *D gf180mcu_fd_sc_mcu7t5v0__xor2_1
*CAP
1 *478:E 0.000554964
2 *477:E 0
3 *481:Z 0.00064423
4 *80:12 0.00119919
5 *478:E *533:EN 5.18467e-05
6 *478:E *579:EN 3.45498e-05
7 *478:E *586:E 0.000790371
8 *478:E *602:E 0.000113027
9 *80:12 *481:A1 0.00214164
10 *80:12 *594:I 5.36452e-06
11 *80:12 *598:I 0.000139799
12 *80:12 *604:I 0.000116532
13 *80:12 *82:16 0.000222746
14 *80:12 *159:12 9.33122e-05
15 *80:12 *162:12 0.000142425
16 *187:I *478:E 0.000113016
17 *187:I *80:12 0
18 *477:RN *478:E 2.74728e-05
19 *6:11 *478:E 0.000221889
20 *17:9 *478:E 8.19964e-05
21 *17:9 *80:12 1.93852e-05
22 *24:9 *80:12 0
23 *43:151 *478:E 0.000205517
24 *43:160 *478:E 5.3258e-05
*RES
1 *481:Z *80:12 23.276 
2 *80:12 *477:E 4.5 
3 *80:12 *478:E 11.156 
*END

*D_NET *81 0.0313721
*CONN
*I *476:Z I *D gf180mcu_fd_sc_mcu7t5v0__hold
*I *483:I I *D gf180mcu_fd_sc_mcu7t5v0__clkbuf_2
*I *526:A1 I *D gf180mcu_fd_sc_mcu7t5v0__xor2_1
*I *467:I I *D gf180mcu_fd_sc_mcu7t5v0__clkbuf_2
*I *470:ZN O *D gf180mcu_fd_sc_mcu7t5v0__invz_2
*I *472:ZN O *D gf180mcu_fd_sc_mcu7t5v0__invz_8
*CAP
1 *476:Z 0.000892104
2 *483:I 0.00050275
3 *526:A1 0
4 *467:I 0.0008713
5 *470:ZN 8.10742e-05
6 *472:ZN 0.00119208
7 *81:43 0.00171811
8 *81:33 0.00283878
9 *81:8 0.00187027
10 *467:I *523:E 0.000146725
11 *467:I *526:A2 0.00130517
12 *467:I *528:I 0.000700803
13 *467:I *530:I 0.000827023
14 *467:I *531:I 4.27204e-05
15 *467:I *540:I 0.00110534
16 *467:I *556:A1 0.000213968
17 *467:I *590:A2 0.000249469
18 *467:I *122:6 0.000805717
19 *470:ZN *603:I 0.00011505
20 *476:Z *511:A2 1.12327e-05
21 *476:Z *583:I 0.000238073
22 *483:I *484:I 0.000179413
23 *483:I *486:I 8.44565e-06
24 *483:I *486:ZN 4.67771e-06
25 *483:I *517:EN 0.000480466
26 *483:I *95:6 8.10724e-05
27 *483:I *104:39 4.6236e-05
28 *81:8 *603:I 0.000322345
29 *81:33 *469:I 5.94795e-05
30 *81:33 *485:EN 0.000384037
31 *81:33 *487:EN 0.000135894
32 *81:33 *488:EN 0.000266648
33 *81:33 *576:I 5.70547e-05
34 *81:33 *593:I 0.000199998
35 *81:33 *605:A2 0
36 *81:43 *517:I 0.000110557
37 *81:43 *518:EN 0.000233518
38 *81:43 *89:12 0.000271774
39 *81:43 *104:39 0.0001741
40 *81:43 *108:12 0.000522847
41 *81:43 *155:14 0.000182208
42 *186:I *81:33 7.67136e-06
43 *189:I *483:I 7.12358e-05
44 *189:I *81:33 0.00019905
45 *193:I *467:I 0.000179413
46 *193:I *483:I 0.00041799
47 *193:I *81:43 0.00492223
48 *201:I *470:ZN 0.00042999
49 *201:I *81:8 0.0015424
50 *431:Z *483:I 0.000227865
51 *431:Z *81:33 5.24974e-05
52 *457:EN *81:33 0
53 *462:RN *476:Z 0
54 *464:I *476:Z 0.000102867
55 *465:I *476:Z 0.000250736
56 *466:A2 *483:I 0
57 *468:I *476:Z 0
58 *470:I *470:ZN 0.000247057
59 *470:I *81:33 1.12609e-05
60 *471:EN *81:33 7.51586e-05
61 *471:I *81:33 0
62 *472:EN *81:33 0.000156075
63 *473:EN *470:ZN 0.000256285
64 *474:I *81:33 3.80112e-05
65 *493:D *81:43 0.000176416
66 *507:RN *476:Z 0.000185295
67 *523:D *467:I 7.40795e-05
68 *587:D *81:43 0.00017298
69 *590:A1 *467:I 0.000222506
70 *7:21 *467:I 2.45157e-05
71 *7:21 *81:43 0.000497185
72 *8:15 *467:I 0.00041022
73 *10:13 *467:I 0.000137166
74 *12:17 *467:I 0.000474779
75 *18:13 *467:I 0.000228035
76 *27:13 *476:Z 4.05593e-05
77 *43:206 *467:I 2.11438e-05
78 *43:217 *467:I 4.4504e-06
79 *69:20 *476:Z 6.64924e-05
*RES
1 *472:ZN *81:8 13.264 
2 *81:8 *470:ZN 10.872 
3 *81:8 *81:33 28.504 
4 *81:33 *81:43 18.852 
5 *81:43 *467:I 36.852 
6 *81:43 *526:A1 4.5 
7 *81:33 *483:I 22.784 
8 *472:ZN *476:Z 15.448 
*END

*D_NET *82 0.0140288
*CONN
*I *481:A2 I *D gf180mcu_fd_sc_mcu7t5v0__xor2_1
*I *467:Z O *D gf180mcu_fd_sc_mcu7t5v0__clkbuf_2
*CAP
1 *481:A2 4.79106e-05
2 *467:Z 0.00440955
3 *82:16 0.00445746
4 *481:A2 *481:A1 0.0014264
5 *481:A2 *595:I 0.000534088
6 *82:16 *481:A1 5.17594e-05
7 *82:16 *162:12 0.00106685
8 *188:I *82:16 0
9 *13:13 *82:16 0
10 *24:9 *82:16 0.000123669
11 *43:131 *82:16 0.000166443
12 *76:12 *481:A2 0.000356371
13 *76:12 *82:16 0.00116558
14 *80:12 *82:16 0.000222746
*RES
1 *467:Z *82:16 48.056 
2 *82:16 *481:A2 12.64 
*END

*D_NET *83 0.0184773
*CONN
*I *576:I I *D gf180mcu_fd_sc_mcu7t5v0__clkbuf_2
*I *579:ZN O *D gf180mcu_fd_sc_mcu7t5v0__invz_2
*I *585:Z I *D gf180mcu_fd_sc_mcu7t5v0__hold
*I *592:I I *D gf180mcu_fd_sc_mcu7t5v0__clkbuf_2
*I *481:A1 I *D gf180mcu_fd_sc_mcu7t5v0__xor2_1
*I *581:ZN O *D gf180mcu_fd_sc_mcu7t5v0__invz_8
*CAP
1 *576:I 0.00106912
2 *579:ZN 0.000295726
3 *585:Z 0.000491283
4 *592:I 0
5 *481:A1 0.00027196
6 *581:ZN 0
7 *83:44 0.00142679
8 *83:8 0.0008792
9 *83:4 0.00103658
10 *481:A1 *595:I 6.40967e-05
11 *481:A1 *598:I 7.05665e-05
12 *481:A1 *162:12 0.000758929
13 *576:I *484:I 0.00017298
14 *576:I *488:EN 9.04921e-05
15 *576:I *494:I 9.72956e-05
16 *576:I *495:I 0.000136
17 *576:I *578:I 0.00109588
18 *576:I *579:I 0.00279572
19 *576:I *605:A2 0.000191002
20 *576:I *89:12 5.21725e-05
21 *576:I *110:8 0.000197329
22 *576:I *157:21 0.000752343
23 *579:ZN *533:EN 0
24 *579:ZN *579:I 0.000597435
25 *579:ZN *104:39 0
26 *579:ZN *110:8 0.000102095
27 *579:ZN *152:8 2.17376e-05
28 *579:ZN *157:10 0
29 *585:Z *514:I 0.000141183
30 *585:Z *579:EN 0.000134728
31 *585:Z *579:I 0.000417698
32 *83:8 *514:I 0.000125254
33 *83:8 *579:EN 0.000103788
34 *83:8 *151:8 0.000711434
35 *83:8 *162:12 0.000198036
36 *83:8 *167:12 1.49164e-05
37 *83:44 *514:I 0.000249441
38 *83:44 *579:I 1.77406e-05
39 *481:A2 *481:A1 0.0014264
40 *77:10 *585:Z 1.95308e-05
41 *80:12 *481:A1 0.00214164
42 *81:33 *576:I 5.70547e-05
43 *82:16 *481:A1 5.17594e-05
*RES
1 *581:ZN *83:4 4.5 
2 *83:4 *83:8 5.2 
3 *83:8 *481:A1 20.676 
4 *83:8 *592:I 4.5 
5 *83:4 *585:Z 8.14 
6 *585:Z *83:44 9.728 
7 *83:44 *579:ZN 12.12 
8 *83:44 *576:I 22 
*END

*D_NET *84 0.00723194
*CONN
*I *469:I I *D gf180mcu_fd_sc_mcu7t5v0__clkbuf_1
*I *473:I I *D gf180mcu_fd_sc_mcu7t5v0__invz_4
*I *472:I I *D gf180mcu_fd_sc_mcu7t5v0__invz_8
*I *468:Z O *D gf180mcu_fd_sc_mcu7t5v0__clkbuf_2
*CAP
1 *469:I 0.000209997
2 *473:I 0.000283361
3 *472:I 0.00053074
4 *468:Z 0.000175306
5 *84:8 0.000779411
6 *472:I *595:I 0.000564326
7 *84:8 *595:I 0.00159655
8 *453:I *84:8 6.17457e-05
9 *458:EN *84:8 0.000447626
10 *462:D *473:I 3.98202e-05
11 *471:EN *469:I 1.40331e-05
12 *471:I *469:I 5.63044e-06
13 *471:I *472:I 0.000896832
14 *471:I *473:I 0.00014211
15 *474:I *469:I 0.000171408
16 *474:I *472:I 0.000975933
17 *63:36 *472:I 6.91476e-05
18 *63:36 *84:8 0.000146676
19 *74:6 *473:I 6.18147e-05
20 *74:10 *473:I 0
21 *81:33 *469:I 5.94795e-05
*RES
1 *468:Z *84:8 13.264 
2 *84:8 *472:I 13.368 
3 *84:8 *473:I 11.184 
4 *472:I *469:I 10.56 
*END

*D_NET *85 0.00320985
*CONN
*I *486:I I *D gf180mcu_fd_sc_mcu7t5v0__invz_2
*I *484:Z O *D gf180mcu_fd_sc_mcu7t5v0__clkbuf_1
*CAP
1 *486:I 0.000177809
2 *484:Z 0.000177809
3 *486:I *517:EN 0.00141544
4 *486:I *524:I 1.78817e-06
5 *202:I *486:I 0.00142719
6 *466:A2 *486:I 1.36398e-06
7 *483:I *486:I 8.44565e-06
*RES
1 *484:Z *486:I 22.16 
*END

*D_NET *86 0.00272792
*CONN
*I *490:Z I *D gf180mcu_fd_sc_mcu7t5v0__hold
*I *489:I I *D gf180mcu_fd_sc_mcu7t5v0__clkinv_2
*I *486:ZN O *D gf180mcu_fd_sc_mcu7t5v0__invz_2
*I *488:ZN O *D gf180mcu_fd_sc_mcu7t5v0__invz_4
*CAP
1 *490:Z 6.90272e-05
2 *489:I 0.000282116
3 *486:ZN 0.000248845
4 *488:ZN 0.000316157
5 *86:24 0.000418455
6 *486:ZN *488:I 0
7 *486:ZN *524:I 2.32071e-05
8 *489:I *485:ZN 3.29605e-06
9 *489:I *524:I 5.85208e-05
10 *490:Z *582:EN 1.76416e-05
11 *490:Z *104:39 0.000140873
12 *86:24 *104:39 0.000168803
13 *193:I *490:Z 4.73153e-05
14 *193:I *86:24 2.1233e-05
15 *466:A2 *489:I 0.000900949
16 *483:I *486:ZN 4.67771e-06
17 *605:A1 *489:I 6.80166e-06
*RES
1 *488:ZN *486:ZN 10.56 
2 *488:ZN *86:24 9.52 
3 *86:24 *489:I 11.6 
4 *86:24 *490:Z 9.728 
*END

*D_NET *87 0.000734665
*CONN
*I *485:I I *D gf180mcu_fd_sc_mcu7t5v0__invz_2
*I *489:ZN O *D gf180mcu_fd_sc_mcu7t5v0__clkinv_2
*CAP
1 *485:I 3.6201e-05
2 *489:ZN 3.6201e-05
3 *485:I *579:I 0.000331132
4 *485:I *589:I 0.000331132
*RES
1 *489:ZN *485:I 18.936 
*END

*D_NET *88 0.00106331
*CONN
*I *485:EN I *D gf180mcu_fd_sc_mcu7t5v0__invz_2
*I *494:I I *D gf180mcu_fd_sc_mcu7t5v0__inv_1
*I *492:Q O *D gf180mcu_fd_sc_mcu7t5v0__latrnq_1
*CAP
1 *485:EN 0.000120543
2 *494:I 0.00016357
3 *492:Q 0
4 *88:4 0.000284113
5 *494:I *605:A2 1.37466e-05
6 *576:I *494:I 9.72956e-05
7 *81:33 *485:EN 0.000384037
*RES
1 *492:Q *88:4 4.5 
2 *88:4 *494:I 6.164 
3 *88:4 *485:EN 6.164 
*END

*D_NET *89 0.00434673
*CONN
*I *495:I I *D gf180mcu_fd_sc_mcu7t5v0__inv_1
*I *486:EN I *D gf180mcu_fd_sc_mcu7t5v0__invz_2
*I *493:Q O *D gf180mcu_fd_sc_mcu7t5v0__latrnq_1
*CAP
1 *495:I 0.000356239
2 *486:EN 7.26285e-05
3 *493:Q 0.000114984
4 *89:12 0.000543852
5 *486:EN *484:I 0.000594106
6 *486:EN *488:EN 3.22108e-05
7 *486:EN *517:EN 0.000657053
8 *495:I *484:I 0.000103788
9 *495:I *488:EN 0
10 *495:I *605:A2 0.000598419
11 *89:12 *484:I 0.000113016
12 *89:12 *605:A2 0.000325853
13 *89:12 *104:39 5.24641e-05
14 *189:I *486:EN 0.000103788
15 *193:I *486:EN 2.66514e-05
16 *425:EN *495:I 0
17 *576:I *495:I 0.000136
18 *576:I *89:12 5.21725e-05
19 *9:9 *495:I 0
20 *12:17 *495:I 0.000191727
21 *81:43 *89:12 0.000271774
*RES
1 *493:Q *89:12 15.164 
2 *89:12 *486:EN 15.58 
3 *89:12 *495:I 8.244 
*END

*D_NET *90 0.00155934
*CONN
*I *487:EN I *D gf180mcu_fd_sc_mcu7t5v0__invz_8
*I *494:ZN O *D gf180mcu_fd_sc_mcu7t5v0__inv_1
*CAP
1 *487:EN 0.000172092
2 *494:ZN 0.000172092
3 *487:EN *578:I 0.000498827
4 *487:EN *579:I 0.000507644
5 *431:Z *487:EN 7.27893e-05
6 *81:33 *487:EN 0.000135894
*RES
1 *494:ZN *487:EN 20.496 
*END

*D_NET *91 0.00207222
*CONN
*I *488:EN I *D gf180mcu_fd_sc_mcu7t5v0__invz_4
*I *495:ZN O *D gf180mcu_fd_sc_mcu7t5v0__inv_1
*CAP
1 *488:EN 0.000720031
2 *495:ZN 0.000720031
3 *189:I *488:EN 0.000128303
4 *425:EN *488:EN 1.71326e-05
5 *431:Z *488:EN 1.63544e-05
6 *486:EN *488:EN 3.22108e-05
7 *495:I *488:EN 0
8 *576:I *488:EN 9.04921e-05
9 *9:9 *488:EN 8.10143e-05
10 *38:6 *488:EN 0
11 *81:33 *488:EN 0.000266648
*RES
1 *495:ZN *488:EN 14.408 
*END

*D_NET *92 0.00139282
*CONN
*I *493:E I *D gf180mcu_fd_sc_mcu7t5v0__latrnq_1
*I *492:E I *D gf180mcu_fd_sc_mcu7t5v0__latrnq_1
*I *496:Z O *D gf180mcu_fd_sc_mcu7t5v0__xor2_1
*CAP
1 *493:E 8.99022e-05
2 *492:E 0
3 *496:Z 0.000253918
4 *92:10 0.00034382
5 *493:E *515:EN 0.000141622
6 *92:10 *496:A2 0.000105971
7 *92:10 *515:EN 6.36532e-05
8 *92:10 *581:I 4.78732e-05
9 *92:10 *582:EN 1.02379e-05
10 *492:RN *493:E 5.98136e-05
11 *492:RN *92:10 0.000276007
*RES
1 *496:Z *92:10 6.892 
2 *92:10 *492:E 4.5 
3 *92:10 *493:E 5.228 
*END

*D_NET *93 0.0114194
*CONN
*I *498:I I *D gf180mcu_fd_sc_mcu7t5v0__clkbuf_2
*I *491:Z I *D gf180mcu_fd_sc_mcu7t5v0__hold
*I *485:ZN O *D gf180mcu_fd_sc_mcu7t5v0__invz_2
*I *541:A1 I *D gf180mcu_fd_sc_mcu7t5v0__xor2_1
*I *482:I I *D gf180mcu_fd_sc_mcu7t5v0__clkbuf_2
*I *487:ZN O *D gf180mcu_fd_sc_mcu7t5v0__invz_8
*CAP
1 *498:I 0.000219952
2 *491:Z 0.000708702
3 *485:ZN 0.000316238
4 *541:A1 0.000259195
5 *482:I 0
6 *487:ZN 0.000874156
7 *93:16 0.000793896
8 *93:10 0.00123635
9 *485:ZN *487:I 1.17491e-05
10 *485:ZN *524:I 0.00026679
11 *491:Z *501:EN 6.17359e-05
12 *491:Z *510:I 6.78142e-05
13 *491:Z *511:A2 0
14 *498:I *501:EN 5.13977e-05
15 *498:I *545:I 2.81522e-06
16 *93:10 *511:A2 0.000103788
17 *93:10 *524:I 1.27019e-05
18 *93:10 *582:EN 0.0012147
19 *93:16 *524:I 0.000467739
20 *93:16 *582:EN 0.00199136
21 *193:I *491:Z 4.10707e-05
22 *431:Z *485:ZN 1.19663e-05
23 *489:I *485:ZN 3.29605e-06
24 *508:RN *491:Z 0.000382979
25 *508:RN *498:I 6.95257e-05
26 *591:I *541:A1 0.000372387
27 *591:I *93:16 0.000990956
28 *605:A1 *485:ZN 0.000111254
29 *605:A1 *93:10 9.39487e-05
30 *8:15 *541:A1 0.000250664
31 *12:17 *541:A1 0.000224258
32 *12:17 *93:16 0.000187924
33 *43:8 *498:I 1.81425e-05
34 *56:62 *491:Z 0
35 *56:62 *498:I 0
36 *68:8 *485:ZN 0
*RES
1 *487:ZN *93:10 12.744 
2 *93:10 *93:16 12.612 
3 *93:16 *482:I 4.5 
4 *93:16 *541:A1 7.516 
5 *93:10 *485:ZN 11.392 
6 *487:ZN *491:Z 12.848 
7 *491:Z *498:I 10.768 
*END

*D_NET *94 0.00257477
*CONN
*I *496:A2 I *D gf180mcu_fd_sc_mcu7t5v0__xor2_1
*I *482:Z O *D gf180mcu_fd_sc_mcu7t5v0__clkbuf_2
*CAP
1 *496:A2 0.000326255
2 *482:Z 0.000326255
3 *496:A2 *581:I 1.32185e-05
4 *492:RN *496:A2 0.000715079
5 *591:I *496:A2 0.000218821
6 *43:67 *496:A2 0.000406701
7 *43:297 *496:A2 0.000462468
8 *92:10 *496:A2 0.000105971
*RES
1 *482:Z *496:A2 13.264 
*END

*D_NET *95 0.00479737
*CONN
*I *487:I I *D gf180mcu_fd_sc_mcu7t5v0__invz_8
*I *484:I I *D gf180mcu_fd_sc_mcu7t5v0__clkbuf_1
*I *488:I I *D gf180mcu_fd_sc_mcu7t5v0__invz_4
*I *483:Z O *D gf180mcu_fd_sc_mcu7t5v0__clkbuf_2
*CAP
1 *487:I 0.000288189
2 *484:I 9.5191e-05
3 *488:I 0.000406285
4 *483:Z 0.000180431
5 *95:6 0.000393718
6 *484:I *517:EN 7.64551e-05
7 *487:I *524:I 1.80851e-05
8 *488:I *524:I 0
9 *193:I *484:I 0.000952138
10 *431:Z *487:I 6.39195e-05
11 *431:Z *488:I 0.000405383
12 *431:Z *95:6 0.000661448
13 *483:I *484:I 0.000179413
14 *483:I *95:6 8.10724e-05
15 *485:ZN *487:I 1.17491e-05
16 *486:EN *484:I 0.000594106
17 *486:ZN *488:I 0
18 *495:I *484:I 0.000103788
19 *576:I *484:I 0.00017298
20 *89:12 *484:I 0.000113016
*RES
1 *483:Z *95:6 6.476 
2 *95:6 *488:I 5.644 
3 *95:6 *484:I 16.62 
4 *488:I *487:I 10.872 
*END

*D_NET *96 0.000655034
*CONN
*I *501:I I *D gf180mcu_fd_sc_mcu7t5v0__invz_2
*I *499:Z O *D gf180mcu_fd_sc_mcu7t5v0__clkbuf_1
*CAP
1 *501:I 0.000197793
2 *499:Z 0.000197793
3 *501:I *499:I 2.38773e-05
4 *501:I *503:I 0.000116566
5 *501:I *506:Z 0.000119004
6 *56:62 *501:I 0
*RES
1 *499:Z *501:I 11.08 
*END

*D_NET *97 0.00193315
*CONN
*I *505:Z I *D gf180mcu_fd_sc_mcu7t5v0__hold
*I *501:ZN O *D gf180mcu_fd_sc_mcu7t5v0__invz_2
*I *504:I I *D gf180mcu_fd_sc_mcu7t5v0__clkinv_2
*I *503:ZN O *D gf180mcu_fd_sc_mcu7t5v0__invz_4
*CAP
1 *505:Z 0
2 *501:ZN 0.000165936
3 *504:I 0.000435825
4 *503:ZN 6.51095e-05
5 *97:21 0.00025562
6 *97:6 0.000590618
7 *501:ZN *506:Z 4.78192e-05
8 *501:ZN *104:25 8.35178e-06
9 *97:6 *506:Z 0.000113027
10 *97:6 *104:21 2.89664e-05
11 *97:21 *506:Z 0.000215526
12 *202:I *501:ZN 6.35093e-06
*RES
1 *503:ZN *97:6 5.228 
2 *97:6 *504:I 15.788 
3 *97:6 *97:21 0.728 
4 *97:21 *501:ZN 14.644 
5 *97:21 *505:Z 4.5 
*END

*D_NET *98 0.00184834
*CONN
*I *500:I I *D gf180mcu_fd_sc_mcu7t5v0__invz_2
*I *504:ZN O *D gf180mcu_fd_sc_mcu7t5v0__clkinv_2
*CAP
1 *500:I 0.000903717
2 *504:ZN 0.000903717
3 *500:I *104:10 4.09061e-05
*RES
1 *504:ZN *500:I 23.616 
*END

*D_NET *99 0.00259149
*CONN
*I *500:EN I *D gf180mcu_fd_sc_mcu7t5v0__invz_2
*I *509:I I *D gf180mcu_fd_sc_mcu7t5v0__inv_1
*I *507:Q O *D gf180mcu_fd_sc_mcu7t5v0__latrnq_1
*CAP
1 *500:EN 0.000206162
2 *509:I 0.00010788
3 *507:Q 0.000210708
4 *99:12 0.000524749
5 *500:EN *502:EN 0
6 *500:EN *578:I 0.000235259
7 *509:I *582:EN 0
8 *509:I *589:I 0.000701132
9 *99:12 *578:I 0.000325488
10 *99:12 *580:I 5.28381e-05
11 *99:12 *589:I 9.37153e-05
12 *202:I *500:EN 0
13 *446:Z *500:EN 5.65061e-06
14 *56:62 *500:EN 7.77726e-05
15 *69:12 *99:12 4.17589e-06
16 *69:14 *99:12 4.59575e-05
*RES
1 *507:Q *99:12 15.58 
2 *99:12 *509:I 15.268 
3 *99:12 *500:EN 6.268 
*END

*D_NET *100 0.00149974
*CONN
*I *501:EN I *D gf180mcu_fd_sc_mcu7t5v0__invz_2
*I *510:I I *D gf180mcu_fd_sc_mcu7t5v0__inv_1
*I *508:Q O *D gf180mcu_fd_sc_mcu7t5v0__latrnq_1
*CAP
1 *501:EN 0.000290087
2 *510:I 0.000233463
3 *508:Q 0
4 *100:4 0.00052355
5 *491:Z *501:EN 6.17359e-05
6 *491:Z *510:I 6.78142e-05
7 *498:I *501:EN 5.13977e-05
8 *56:62 *501:EN 0.000196432
9 *56:62 *510:I 7.52592e-05
*RES
1 *508:Q *100:4 4.5 
2 *100:4 *510:I 6.684 
3 *100:4 *501:EN 7.412 
*END

*D_NET *101 0.00156631
*CONN
*I *502:EN I *D gf180mcu_fd_sc_mcu7t5v0__invz_8
*I *509:ZN O *D gf180mcu_fd_sc_mcu7t5v0__inv_1
*CAP
1 *502:EN 0.000554416
2 *509:ZN 0.000554416
3 *502:EN *502:I 1.07369e-05
4 *502:EN *503:EN 7.93961e-05
5 *502:EN *582:EN 0.000148708
6 *502:EN *104:25 0
7 *202:I *502:EN 0.000218634
8 *500:EN *502:EN 0
9 *56:62 *502:EN 0
*RES
1 *509:ZN *502:EN 22.992 
*END

*D_NET *102 0.00106127
*CONN
*I *503:EN I *D gf180mcu_fd_sc_mcu7t5v0__invz_4
*I *510:ZN O *D gf180mcu_fd_sc_mcu7t5v0__inv_1
*CAP
1 *503:EN 0.000266033
2 *510:ZN 0.000266033
3 *503:EN *502:I 0
4 *503:EN *582:EN 0
5 *503:EN *104:25 3.0529e-05
6 *502:EN *503:EN 7.93961e-05
7 *56:62 *503:EN 0.000419276
*RES
1 *510:ZN *503:EN 20.496 
*END

*D_NET *103 0.0030279
*CONN
*I *508:E I *D gf180mcu_fd_sc_mcu7t5v0__latrnq_1
*I *507:E I *D gf180mcu_fd_sc_mcu7t5v0__latrnq_1
*I *511:Z O *D gf180mcu_fd_sc_mcu7t5v0__xor2_1
*CAP
1 *508:E 0.000475452
2 *507:E 0.000186482
3 *511:Z 3.0305e-05
4 *103:6 0.000692238
5 *508:E *497:I 0.000106491
6 *508:E *511:A2 4.38375e-05
7 *508:E *104:39 0.000635425
8 *191:I *507:E 0.000168199
9 *191:I *508:E 0.000296543
10 *452:I *508:E 8.00947e-05
11 *466:A2 *507:E 9.0358e-05
12 *466:A2 *508:E 0.000142547
13 *508:D *508:E 7.99289e-05
*RES
1 *511:Z *103:6 4.812 
2 *103:6 *507:E 6.164 
3 *103:6 *508:E 9.596 
*END

*D_NET *104 0.0383709
*CONN
*I *574:I I *D gf180mcu_fd_sc_mcu7t5v0__clkinv_2
*I *506:Z I *D gf180mcu_fd_sc_mcu7t5v0__hold
*I *497:I I *D gf180mcu_fd_sc_mcu7t5v0__clkbuf_2
*I *556:A1 I *D gf180mcu_fd_sc_mcu7t5v0__xor2_1
*I *513:I I *D gf180mcu_fd_sc_mcu7t5v0__clkbuf_2
*I *500:ZN O *D gf180mcu_fd_sc_mcu7t5v0__invz_2
*I *502:ZN O *D gf180mcu_fd_sc_mcu7t5v0__invz_8
*CAP
1 *574:I 0.000674462
2 *506:Z 0.00183943
3 *497:I 0.000118212
4 *556:A1 0.00113803
5 *513:I 0
6 *500:ZN 8.69698e-05
7 *502:ZN 0.000238352
8 *104:39 0.00295461
9 *104:25 0.00259955
10 *104:21 0.00198827
11 *104:10 0.000483856
12 *500:ZN *582:EN 0.000276007
13 *506:Z *503:I 0
14 *506:Z *546:I 0.00231597
15 *506:Z *612:ZN 0.000271894
16 *506:Z *618:I 1.85523e-05
17 *506:Z *177:6 7.95519e-06
18 *556:A1 *528:I 1.07369e-05
19 *556:A1 *531:I 0.00102999
20 *556:A1 *117:8 0.0004054
21 *556:A1 *122:6 8.32504e-05
22 *556:A1 *155:14 6.91919e-05
23 *574:I *546:I 0.000288004
24 *574:I *548:EN 0.000794728
25 *574:I *555:I 0.000860627
26 *574:I *611:I 1.60338e-05
27 *574:I *611:ZN 0
28 *104:10 *582:EN 1.90528e-05
29 *104:39 *515:I 1.28023e-05
30 *104:39 *517:I 3.0496e-05
31 *104:39 *518:EN 0.000254597
32 *104:39 *519:I 6.03731e-05
33 *104:39 *582:EN 0.000291944
34 *104:39 *110:8 0
35 *104:39 *117:8 0.000477403
36 *104:39 *117:12 0.000555508
37 *104:39 *155:14 0.000194511
38 *189:I *104:39 0.000777089
39 *193:I *104:25 4.95578e-05
40 *193:I *104:39 8.89721e-05
41 *202:I *500:ZN 0.000497696
42 *202:I *506:Z 5.63044e-06
43 *202:I *104:21 0.000785996
44 *202:I *104:25 0.00284025
45 *452:I *497:I 0.000293957
46 *452:I *104:25 3.59156e-05
47 *452:I *104:39 0.000423046
48 *466:A2 *104:39 0.00029601
49 *467:I *556:A1 0.000213968
50 *483:I *104:39 4.6236e-05
51 *490:Z *104:39 0.000140873
52 *493:D *104:39 0.00102346
53 *500:I *104:10 4.09061e-05
54 *501:I *506:Z 0.000119004
55 *501:ZN *506:Z 4.78192e-05
56 *501:ZN *104:25 8.35178e-06
57 *502:EN *104:25 0
58 *503:EN *104:25 3.0529e-05
59 *508:D *497:I 4.45041e-05
60 *508:E *497:I 0.000106491
61 *508:E *104:39 0.000635425
62 *523:D *556:A1 0.00180101
63 *537:D *556:A1 0.0014548
64 *568:D *556:A1 5.24593e-05
65 *573:I *556:A1 0.000509988
66 *579:ZN *104:39 0
67 *587:D *556:A1 0.000103788
68 *587:D *104:39 0.000185295
69 *618:EN *506:Z 0
70 *7:21 *556:A1 0.000620347
71 *11:15 *556:A1 0.00194081
72 *15:13 *556:A1 0.000487069
73 *16:7 *556:A1 8.48683e-06
74 *19:11 *556:A1 6.0368e-05
75 *29:9 *556:A1 0.000406972
76 *30:13 *556:A1 0.000350743
77 *31:11 *556:A1 2.02227e-05
78 *31:11 *104:39 0.000330883
79 *43:217 *556:A1 0.000266298
80 *81:43 *104:39 0.0001741
81 *86:24 *104:39 0.000168803
82 *89:12 *104:39 5.24641e-05
83 *97:6 *506:Z 0.000113027
84 *97:6 *104:21 2.89664e-05
85 *97:21 *506:Z 0.000215526
*RES
1 *502:ZN *104:10 15.06 
2 *104:10 *500:ZN 5.852 
3 *104:10 *104:21 6.684 
4 *104:21 *104:25 12.092 
5 *104:25 *104:39 29.696 
6 *104:39 *513:I 4.5 
7 *104:39 *556:A1 42.78 
8 *104:25 *497:I 5.956 
9 *104:21 *506:Z 21.48 
10 *506:Z *574:I 25.072 
*END

*D_NET *105 0.00235832
*CONN
*I *511:A2 I *D gf180mcu_fd_sc_mcu7t5v0__xor2_1
*I *497:Z O *D gf180mcu_fd_sc_mcu7t5v0__clkbuf_2
*CAP
1 *511:A2 0.000805095
2 *497:Z 0.000805095
3 *193:I *511:A2 0
4 *452:I *511:A2 0.000422163
5 *476:Z *511:A2 1.12327e-05
6 *491:Z *511:A2 0
7 *508:D *511:A2 0.000116101
8 *508:E *511:A2 4.38375e-05
9 *508:RN *511:A2 5.10086e-05
10 *93:10 *511:A2 0.000103788
*RES
1 *497:Z *511:A2 15.24 
*END

*D_NET *106 0.00216986
*CONN
*I *502:I I *D gf180mcu_fd_sc_mcu7t5v0__invz_8
*I *499:I I *D gf180mcu_fd_sc_mcu7t5v0__clkbuf_1
*I *503:I I *D gf180mcu_fd_sc_mcu7t5v0__invz_4
*I *498:Z O *D gf180mcu_fd_sc_mcu7t5v0__clkbuf_2
*CAP
1 *502:I 0.000209814
2 *499:I 2.6361e-05
3 *503:I 0.000603992
4 *498:Z 0.000183415
5 *106:10 0.000603954
6 *499:I *525:I 1.01781e-05
7 *503:I *525:I 2.90272e-05
8 *106:10 *525:I 5.19556e-05
9 *202:I *502:I 6.47535e-05
10 *202:I *503:I 3.3221e-05
11 *501:I *499:I 2.38773e-05
12 *501:I *503:I 0.000116566
13 *502:EN *502:I 1.07369e-05
14 *503:EN *502:I 0
15 *506:Z *503:I 0
16 *5:13 *106:10 1.57138e-05
17 *5:15 *106:10 4.94991e-05
18 *5:17 *106:10 0.000124423
19 *5:19 *106:10 1.23748e-05
20 *56:62 *502:I 0
21 *56:62 *503:I 0
*RES
1 *498:Z *106:10 15.476 
2 *106:10 *503:I 7.308 
3 *106:10 *499:I 4.812 
4 *503:I *502:I 10.56 
*END

*D_NET *107 0.0037127
*CONN
*I *516:I I *D gf180mcu_fd_sc_mcu7t5v0__invz_2
*I *514:Z O *D gf180mcu_fd_sc_mcu7t5v0__clkbuf_1
*CAP
1 *516:I 0.00144244
2 *514:Z 0.00144244
3 *516:I *514:I 4.60413e-05
4 *516:I *519:I 3.4596e-05
5 *516:I *580:EN 4.18157e-05
6 *516:I *584:Z 8.45065e-05
7 *516:I *594:EN 3.4596e-05
8 *516:I *149:17 3.44535e-05
9 *516:I *159:6 0
10 *516:I *159:12 0
11 *516:I *167:12 3.26036e-05
12 *190:I *516:I 0.000519212
*RES
1 *514:Z *516:I 18.776 
*END

*D_NET *108 0.00408829
*CONN
*I *520:Z I *D gf180mcu_fd_sc_mcu7t5v0__hold
*I *516:ZN O *D gf180mcu_fd_sc_mcu7t5v0__invz_2
*I *519:I I *D gf180mcu_fd_sc_mcu7t5v0__clkinv_2
*I *518:ZN O *D gf180mcu_fd_sc_mcu7t5v0__invz_4
*CAP
1 *520:Z 0
2 *516:ZN 0
3 *519:I 0.000146776
4 *518:ZN 0.000332539
5 *108:14 0.000328043
6 *108:12 0.000513806
7 *519:I *514:I 1.36858e-05
8 *519:I *515:I 0.000283521
9 *519:I *110:8 8.58618e-05
10 *108:12 *516:EN 1.36398e-06
11 *108:12 *517:I 0.000472507
12 *108:12 *117:8 0.000225236
13 *108:12 *117:12 9.40211e-05
14 *108:14 *514:I 8.48196e-06
15 *108:14 *516:EN 6.8199e-07
16 *190:I *519:I 6.53438e-05
17 *190:I *108:14 0.000122054
18 *516:I *519:I 3.4596e-05
19 *7:21 *108:12 0.000698193
20 *14:13 *108:12 3.22108e-05
21 *14:13 *108:14 4.61456e-05
22 *81:43 *108:12 0.000522847
23 *104:39 *519:I 6.03731e-05
*RES
1 *518:ZN *108:12 17.868 
2 *108:12 *108:14 1.352 
3 *108:14 *519:I 15.372 
4 *108:14 *516:ZN 4.5 
5 *108:12 *520:Z 4.5 
*END

*D_NET *109 0.0037183
*CONN
*I *515:I I *D gf180mcu_fd_sc_mcu7t5v0__invz_2
*I *519:ZN O *D gf180mcu_fd_sc_mcu7t5v0__clkinv_2
*CAP
1 *515:I 0.000435947
2 *519:ZN 0.000435947
3 *515:I *517:I 0.000479628
4 *515:I *582:EN 0
5 *515:I *110:8 0.000459373
6 *190:I *515:I 0.00055766
7 *519:I *515:I 0.000283521
8 *14:13 *515:I 0.00105343
9 *26:15 *515:I 0
10 *104:39 *515:I 1.28023e-05
*RES
1 *519:ZN *515:I 23.616 
*END

*D_NET *110 0.00990874
*CONN
*I *524:I I *D gf180mcu_fd_sc_mcu7t5v0__inv_1
*I *515:EN I *D gf180mcu_fd_sc_mcu7t5v0__invz_2
*I *522:Q O *D gf180mcu_fd_sc_mcu7t5v0__latrnq_1
*CAP
1 *524:I 0.00131234
2 *515:EN 0.000645919
3 *522:Q 0.000639367
4 *110:8 0.00259763
5 *515:EN *582:EN 0.000335982
6 *524:I *578:I 0.00088373
7 *524:I *582:EN 9.51777e-05
8 *524:I *157:21 2.66445e-05
9 *110:8 *157:21 0.000254693
10 *466:A2 *524:I 0.000506969
11 *485:ZN *524:I 0.00026679
12 *486:I *524:I 1.78817e-06
13 *486:ZN *524:I 2.32071e-05
14 *487:I *524:I 1.80851e-05
15 *488:I *524:I 0
16 *489:I *524:I 5.85208e-05
17 *492:D *524:I 2.80993e-05
18 *492:D *110:8 5.6515e-05
19 *492:RN *515:EN 5.85454e-05
20 *493:E *515:EN 0.000141622
21 *515:I *110:8 0.000459373
22 *519:I *110:8 8.58618e-05
23 *576:I *110:8 0.000197329
24 *579:ZN *110:8 0.000102095
25 *605:A1 *524:I 1.23478e-05
26 *43:67 *515:EN 0.000556008
27 *92:10 *515:EN 6.36532e-05
28 *93:10 *524:I 1.27019e-05
29 *93:16 *524:I 0.000467739
30 *104:39 *110:8 0
*RES
1 *522:Q *110:8 14.72 
2 *110:8 *515:EN 14.304 
3 *110:8 *524:I 21.272 
*END

*D_NET *111 0.0126512
*CONN
*I *525:I I *D gf180mcu_fd_sc_mcu7t5v0__inv_1
*I *516:EN I *D gf180mcu_fd_sc_mcu7t5v0__invz_2
*I *523:Q O *D gf180mcu_fd_sc_mcu7t5v0__latrnq_1
*CAP
1 *525:I 0.00164872
2 *516:EN 0.00104689
3 *523:Q 0.000222423
4 *111:8 0.00291803
5 *516:EN *514:I 4.70377e-05
6 *525:I *532:EN 0.000438808
7 *525:I *539:I 0
8 *525:I *541:A2 0
9 *525:I *545:I 0.000688636
10 *525:I *590:A2 0.00320297
11 *525:I *121:14 0
12 *111:8 *590:A2 0.000543761
13 *111:8 *121:14 0
14 *202:I *525:I 0
15 *499:I *525:I 1.01781e-05
16 *503:I *525:I 2.90272e-05
17 *508:D *525:I 0.000958955
18 *5:19 *525:I 0
19 *7:21 *516:EN 8.84237e-05
20 *9:9 *525:I 0.000125263
21 *14:13 *516:EN 0
22 *15:13 *525:I 0.000481325
23 *31:11 *516:EN 0
24 *56:62 *525:I 0.000146737
25 *106:10 *525:I 5.19556e-05
26 *108:12 *516:EN 1.36398e-06
27 *108:14 *516:EN 6.8199e-07
*RES
1 *523:Q *111:8 10.56 
2 *111:8 *516:EN 14.928 
3 *111:8 *525:I 28.968 
*END

*D_NET *112 0.00474643
*CONN
*I *517:EN I *D gf180mcu_fd_sc_mcu7t5v0__invz_8
*I *524:ZN O *D gf180mcu_fd_sc_mcu7t5v0__inv_1
*CAP
1 *517:EN 0.000539911
2 *524:ZN 0.000539911
3 *193:I *517:EN 0.000233843
4 *202:I *517:EN 0.000355724
5 *483:I *517:EN 0.000480466
6 *484:I *517:EN 7.64551e-05
7 *486:EN *517:EN 0.000657053
8 *486:I *517:EN 0.00141544
9 *8:15 *517:EN 0.000447626
*RES
1 *524:ZN *517:EN 25.8 
*END

*D_NET *113 0.00821519
*CONN
*I *518:EN I *D gf180mcu_fd_sc_mcu7t5v0__invz_4
*I *525:ZN O *D gf180mcu_fd_sc_mcu7t5v0__inv_1
*CAP
1 *518:EN 0.00345825
2 *525:ZN 0.00345825
3 *518:EN *517:I 0.000536609
4 *189:I *518:EN 0.000166324
5 *493:D *518:EN 0.000107648
6 *81:43 *518:EN 0.000233518
7 *104:39 *518:EN 0.000254597
*RES
1 *525:ZN *518:EN 48.9173 
*END

*D_NET *114 0.00211315
*CONN
*I *523:E I *D gf180mcu_fd_sc_mcu7t5v0__latrnq_1
*I *522:E I *D gf180mcu_fd_sc_mcu7t5v0__latrnq_1
*I *526:Z O *D gf180mcu_fd_sc_mcu7t5v0__xor2_1
*CAP
1 *523:E 9.39648e-05
2 *522:E 0.000174554
3 *526:Z 3.6366e-05
4 *114:6 0.000304885
5 *522:E *540:I 0.000184686
6 *523:E *540:I 1.12327e-05
7 *523:E *155:14 7.72243e-05
8 *193:I *522:E 0.000850275
9 *193:I *523:E 4.07478e-05
10 *467:I *523:E 0.000146725
11 *587:D *523:E 6.01646e-06
12 *10:13 *523:E 0.000186474
*RES
1 *526:Z *114:6 4.812 
2 *114:6 *522:E 6.892 
3 *114:6 *523:E 5.852 
*END

*D_NET *115 0.0127173
*CONN
*I *515:ZN O *D gf180mcu_fd_sc_mcu7t5v0__invz_2
*I *521:Z I *D gf180mcu_fd_sc_mcu7t5v0__hold
*I *571:A1 I *D gf180mcu_fd_sc_mcu7t5v0__xor2_1
*I *512:I I *D gf180mcu_fd_sc_mcu7t5v0__clkbuf_2
*I *528:I I *D gf180mcu_fd_sc_mcu7t5v0__clkbuf_2
*I *517:ZN O *D gf180mcu_fd_sc_mcu7t5v0__invz_8
*CAP
1 *515:ZN 0.000155361
2 *521:Z 0.000155361
3 *571:A1 0.000778964
4 *512:I 0
5 *528:I 0.000235292
6 *517:ZN 0.000106912
7 *115:18 0.000381172
8 *115:16 0.00190732
9 *115:6 0.00108938
10 *528:I *531:I 8.17987e-05
11 *528:I *534:I 9.48851e-05
12 *571:A1 *554:I 0.000572465
13 *571:A1 *569:I 5.04491e-05
14 *571:A1 *571:A2 0.000122656
15 *115:16 *121:14 0.000169331
16 *115:16 *137:10 0
17 *196:I *571:A1 8.10097e-05
18 *196:I *115:18 3.48142e-05
19 *199:I *115:18 7.82526e-05
20 *202:I *515:ZN 0.000104263
21 *422:I *115:16 2.16642e-05
22 *436:A2 *571:A1 9.35542e-06
23 *467:I *528:I 0.000700803
24 *527:I *571:A1 0.000126289
25 *530:ZN *115:16 7.43088e-05
26 *545:ZN *571:A1 0.000300911
27 *556:A1 *528:I 1.07369e-05
28 *568:RN *115:16 6.3804e-05
29 *7:21 *115:6 0.000399417
30 *7:21 *115:16 0.000915009
31 *9:9 *515:ZN 0.000717196
32 *15:13 *528:I 0.000509149
33 *15:13 *571:A1 0.00133719
34 *15:13 *115:18 0.000851184
35 *18:13 *528:I 5.05629e-05
36 *18:13 *115:18 6.08242e-05
37 *21:17 *115:16 2.74464e-05
38 *31:11 *115:6 1.77648e-05
39 *31:11 *115:16 0.000189098
40 *46:6 *115:16 7.27976e-05
41 *46:25 *115:16 6.21514e-05
*RES
1 *517:ZN *115:6 5.644 
2 *115:6 *115:16 13.028 
3 *115:16 *115:18 2.392 
4 *115:18 *528:I 12.328 
5 *115:18 *512:I 9 
6 *115:16 *571:A1 16.904 
7 *115:6 *521:Z 4.5 
8 *521:Z *515:ZN 19.976 
*END

*D_NET *116 0.00621536
*CONN
*I *526:A2 I *D gf180mcu_fd_sc_mcu7t5v0__xor2_1
*I *512:Z O *D gf180mcu_fd_sc_mcu7t5v0__clkbuf_2
*CAP
1 *526:A2 0.0005062
2 *512:Z 0.0005062
3 *526:A2 *531:ZN 2.43614e-05
4 *526:A2 *533:EN 0.00031158
5 *526:A2 *590:A2 3.34587e-05
6 *526:A2 *155:14 0.00188272
7 *467:I *526:A2 0.00130517
8 *587:D *526:A2 0.000317509
9 *10:13 *526:A2 2.85151e-05
10 *43:113 *526:A2 2.74832e-05
11 *43:115 *526:A2 0.00109919
12 *43:131 *526:A2 0.00017298
*RES
1 *512:Z *526:A2 18.152 
*END

*D_NET *117 0.00984198
*CONN
*I *518:I I *D gf180mcu_fd_sc_mcu7t5v0__invz_4
*I *517:I I *D gf180mcu_fd_sc_mcu7t5v0__invz_8
*I *514:I I *D gf180mcu_fd_sc_mcu7t5v0__clkbuf_1
*I *513:Z O *D gf180mcu_fd_sc_mcu7t5v0__clkbuf_2
*CAP
1 *518:I 0
2 *517:I 0.000317993
3 *514:I 0.00125718
4 *513:Z 0.000257237
5 *117:12 0.00172933
6 *117:8 0.000411393
7 *514:I *579:I 1.70957e-06
8 *514:I *584:Z 0.000728312
9 *514:I *149:17 0.000306249
10 *514:I *167:12 0.000553482
11 *493:D *517:I 3.35294e-05
12 *515:I *517:I 0.000479628
13 *516:EN *514:I 4.70377e-05
14 *516:I *514:I 4.60413e-05
15 *518:EN *517:I 0.000536609
16 *519:I *514:I 1.36858e-05
17 *556:A1 *117:8 0.0004054
18 *585:Z *514:I 0.000141183
19 *7:21 *117:8 0.00018073
20 *31:11 *117:8 4.63499e-05
21 *81:43 *517:I 0.000110557
22 *83:8 *514:I 0.000125254
23 *83:44 *514:I 0.000249441
24 *104:39 *517:I 3.0496e-05
25 *104:39 *117:8 0.000477403
26 *104:39 *117:12 0.000555508
27 *108:12 *517:I 0.000472507
28 *108:12 *117:8 0.000225236
29 *108:12 *117:12 9.40211e-05
30 *108:14 *514:I 8.48196e-06
*RES
1 *513:Z *117:8 13.264 
2 *117:8 *117:12 1.872 
3 *117:12 *514:I 19.088 
4 *117:12 *517:I 13.056 
5 *117:8 *518:I 9 
*END

*D_NET *118 0.00635234
*CONN
*I *531:I I *D gf180mcu_fd_sc_mcu7t5v0__invz_2
*I *529:Z O *D gf180mcu_fd_sc_mcu7t5v0__clkbuf_1
*CAP
1 *531:I 0.000826264
2 *529:Z 0.000826264
3 *531:I *529:I 0.000353723
4 *531:I *530:I 0.00079412
5 *531:I *531:ZN 0.00116093
6 *531:I *533:EN 3.42651e-05
7 *531:I *534:I 0.000267969
8 *531:I *538:E 5.42978e-05
9 *531:I *127:10 9.61618e-05
10 *194:I *531:I 7.87395e-06
11 *467:I *531:I 4.27204e-05
12 *528:I *531:I 8.17987e-05
13 *556:A1 *531:I 0.00102999
14 *568:D *531:I 1.07369e-05
15 *12:17 *531:I 2.43415e-05
16 *31:11 *531:I 3.38251e-05
17 *43:113 *531:I 0.000707061
*RES
1 *529:Z *531:I 28.92 
*END

*D_NET *119 0.00719299
*CONN
*I *535:Z I *D gf180mcu_fd_sc_mcu7t5v0__hold
*I *531:ZN O *D gf180mcu_fd_sc_mcu7t5v0__invz_2
*I *534:I I *D gf180mcu_fd_sc_mcu7t5v0__clkinv_2
*I *533:ZN O *D gf180mcu_fd_sc_mcu7t5v0__invz_4
*CAP
1 *535:Z 0.000264577
2 *531:ZN 0.000238092
3 *534:I 0.000195758
4 *533:ZN 0
5 *119:12 0.000686687
6 *119:6 0.000517413
7 *531:ZN *533:EN 0.00146273
8 *436:A2 *535:Z 5.63044e-06
9 *526:A2 *531:ZN 2.43614e-05
10 *528:I *534:I 9.48851e-05
11 *531:I *531:ZN 0.00116093
12 *531:I *534:I 0.000267969
13 *14:13 *534:I 0.000432937
14 *14:13 *535:Z 0.000721658
15 *14:13 *119:12 0.000505539
16 *15:13 *534:I 5.44251e-05
17 *15:13 *119:12 1.2856e-05
18 *43:101 *535:Z 0.000161673
19 *43:101 *119:12 5.48137e-05
20 *43:105 *119:12 0.000143892
21 *43:113 *531:ZN 0.000184113
22 *46:25 *535:Z 2.04597e-06
*RES
1 *533:ZN *119:6 9 
2 *119:6 *119:12 3.224 
3 *119:12 *534:I 11.288 
4 *119:12 *531:ZN 13.68 
5 *119:6 *535:Z 11.496 
*END

*D_NET *120 0.00464135
*CONN
*I *530:I I *D gf180mcu_fd_sc_mcu7t5v0__invz_2
*I *534:ZN O *D gf180mcu_fd_sc_mcu7t5v0__clkinv_2
*CAP
1 *530:I 0.00075454
2 *534:ZN 0.00075454
3 *530:I *529:I 0.0004162
4 *530:I *537:E 9.51718e-05
5 *530:I *590:A2 7.32346e-05
6 *530:I *122:6 0.000306704
7 *530:I *125:10 3.41371e-05
8 *530:I *127:10 0.000113027
9 *467:I *530:I 0.000827023
10 *523:D *530:I 7.95587e-05
11 *531:I *530:I 0.00079412
12 *537:D *530:I 0.000105605
13 *590:A1 *530:I 8.74985e-05
14 *9:9 *530:I 0
15 *10:13 *530:I 0.000199988
*RES
1 *534:ZN *530:I 27.152 
*END

*D_NET *121 0.00461374
*CONN
*I *539:I I *D gf180mcu_fd_sc_mcu7t5v0__inv_1
*I *530:EN I *D gf180mcu_fd_sc_mcu7t5v0__invz_2
*I *537:Q O *D gf180mcu_fd_sc_mcu7t5v0__latrnq_1
*CAP
1 *539:I 0.000665268
2 *530:EN 6.78754e-05
3 *537:Q 0.000441642
4 *121:14 0.00117479
5 *539:I *532:EN 9.7618e-05
6 *539:I *541:A2 0.000755739
7 *539:I *545:I 2.46957e-05
8 *539:I *125:10 0.000555583
9 *121:14 *125:10 0.000220548
10 *525:I *539:I 0
11 *525:I *121:14 0
12 *530:ZN *121:14 5.91309e-05
13 *7:21 *530:EN 0
14 *8:15 *539:I 0.000277094
15 *14:13 *530:EN 1.42631e-05
16 *43:67 *539:I 8.30373e-05
17 *44:18 *539:I 7.13312e-06
18 *111:8 *121:14 0
19 *115:16 *121:14 0.000169331
*RES
1 *537:Q *121:14 12.12 
2 *121:14 *530:EN 9.52 
3 *121:14 *539:I 16.28 
*END

*D_NET *122 0.0124818
*CONN
*I *531:EN I *D gf180mcu_fd_sc_mcu7t5v0__invz_2
*I *540:I I *D gf180mcu_fd_sc_mcu7t5v0__inv_1
*I *538:Q O *D gf180mcu_fd_sc_mcu7t5v0__latrnq_1
*CAP
1 *531:EN 0
2 *540:I 0.00104583
3 *538:Q 0.000224484
4 *122:6 0.00127032
5 *540:I *533:EN 0.000253819
6 *540:I *586:E 0.000113385
7 *122:6 *529:I 0.000820096
8 *122:6 *127:10 0.000122244
9 *193:I *540:I 7.87395e-06
10 *204:I *540:I 4.45041e-05
11 *467:I *540:I 0.00110534
12 *467:I *122:6 0.000805717
13 *522:E *540:I 0.000184686
14 *523:D *122:6 0.00201348
15 *523:E *540:I 1.12327e-05
16 *530:I *122:6 0.000306704
17 *537:D *540:I 0.00118684
18 *537:D *122:6 0.000300785
19 *556:A1 *122:6 8.32504e-05
20 *602:D *540:I 1.40331e-05
21 *6:11 *540:I 2.24654e-05
22 *11:15 *540:I 0.000283738
23 *25:15 *540:I 0.000251489
24 *28:13 *540:I 0.000279356
25 *29:9 *540:I 0.00173008
*RES
1 *538:Q *122:6 11.468 
2 *122:6 *540:I 19.268 
3 *122:6 *531:EN 4.5 
*END

*D_NET *123 0.00243552
*CONN
*I *532:EN I *D gf180mcu_fd_sc_mcu7t5v0__invz_8
*I *539:ZN O *D gf180mcu_fd_sc_mcu7t5v0__inv_1
*CAP
1 *532:EN 0.000530348
2 *539:ZN 0.000530348
3 *532:EN *541:A2 0.00031804
4 *532:EN *545:I 4.68064e-05
5 *432:E *532:EN 0.000258226
6 *525:I *532:EN 0.000438808
7 *539:I *532:EN 9.7618e-05
8 *545:ZN *532:EN 6.73961e-05
9 *43:67 *532:EN 0.000147929
*RES
1 *539:ZN *532:EN 23.304 
*END

*D_NET *124 0.0108376
*CONN
*I *533:EN I *D gf180mcu_fd_sc_mcu7t5v0__invz_4
*I *540:ZN O *D gf180mcu_fd_sc_mcu7t5v0__inv_1
*CAP
1 *533:EN 0.0021928
2 *540:ZN 0.0021928
3 *533:EN *579:EN 0.000537805
4 *533:EN *579:I 0
5 *533:EN *586:E 7.63325e-05
6 *533:EN *601:E 2.95831e-05
7 *533:EN *602:E 3.22108e-05
8 *533:EN *155:14 0.00189502
9 *201:I *533:EN 7.00729e-05
10 *478:E *533:EN 5.18467e-05
11 *526:A2 *533:EN 0.00031158
12 *531:I *533:EN 3.42651e-05
13 *531:ZN *533:EN 0.00146273
14 *540:I *533:EN 0.000253819
15 *579:ZN *533:EN 0
16 *587:D *533:EN 1.16656e-05
17 *6:11 *533:EN 0.000336439
18 *24:9 *533:EN 0
19 *26:15 *533:EN 4.17101e-05
20 *31:11 *533:EN 5.95433e-05
21 *43:131 *533:EN 0.000125989
22 *43:133 *533:EN 7.17602e-05
23 *43:135 *533:EN 0.000106694
24 *43:149 *533:EN 0.000695259
25 *43:151 *533:EN 0.000226968
26 *43:160 *533:EN 2.06817e-05
*RES
1 *540:ZN *533:EN 39.944 
*END

*D_NET *125 0.00827923
*CONN
*I *538:E I *D gf180mcu_fd_sc_mcu7t5v0__latrnq_1
*I *537:E I *D gf180mcu_fd_sc_mcu7t5v0__latrnq_1
*I *541:Z O *D gf180mcu_fd_sc_mcu7t5v0__xor2_1
*CAP
1 *538:E 0.000495973
2 *537:E 0.000330315
3 *541:Z 0.000697945
4 *125:10 0.00152423
5 *125:10 *541:A2 0.000103788
6 *199:I *538:E 5.38595e-05
7 *432:D *125:10 0.0019553
8 *523:D *537:E 7.05624e-05
9 *530:I *537:E 9.51718e-05
10 *530:I *125:10 3.41371e-05
11 *531:I *538:E 5.42978e-05
12 *537:D *537:E 0.000113765
13 *539:I *125:10 0.000555583
14 *590:A1 *537:E 4.08435e-05
15 *590:A1 *125:10 5.20034e-05
16 *8:15 *125:10 1.30531e-05
17 *31:11 *538:E 0.000689487
18 *43:67 *125:10 0.000305617
19 *43:113 *537:E 8.3363e-05
20 *43:113 *538:E 0.00053093
21 *43:206 *538:E 0.000168211
22 *44:18 *125:10 2.73778e-05
23 *46:19 *125:10 6.28659e-05
24 *121:14 *125:10 0.000220548
*RES
1 *541:Z *125:10 17.528 
2 *125:10 *537:E 11.6 
3 *125:10 *538:E 14.928 
*END

*D_NET *126 0.00504012
*CONN
*I *541:A2 I *D gf180mcu_fd_sc_mcu7t5v0__xor2_1
*I *527:Z O *D gf180mcu_fd_sc_mcu7t5v0__clkbuf_2
*CAP
1 *541:A2 0.000351894
2 *527:Z 0.000351894
3 *541:A2 *545:I 0.000498816
4 *432:E *541:A2 5.60123e-05
5 *433:E *541:A2 0.000653194
6 *525:I *541:A2 0
7 *532:EN *541:A2 0.00031804
8 *539:I *541:A2 0.000755739
9 *545:ZN *541:A2 0.00191968
10 *43:67 *541:A2 3.10673e-05
11 *125:10 *541:A2 0.000103788
*RES
1 *527:Z *541:A2 25.384 
*END

*D_NET *127 0.0079682
*CONN
*I *529:I I *D gf180mcu_fd_sc_mcu7t5v0__clkbuf_1
*I *532:I I *D gf180mcu_fd_sc_mcu7t5v0__invz_8
*I *533:I I *D gf180mcu_fd_sc_mcu7t5v0__invz_4
*I *528:Z O *D gf180mcu_fd_sc_mcu7t5v0__clkbuf_2
*CAP
1 *529:I 0.000240013
2 *532:I 0.000593883
3 *533:I 0
4 *528:Z 0
5 *127:10 0.000945896
6 *127:4 0.000592026
7 *194:I *529:I 0.000569975
8 *436:A2 *532:I 0.000433986
9 *523:D *529:I 8.27958e-05
10 *530:I *529:I 0.0004162
11 *530:I *127:10 0.000113027
12 *531:I *529:I 0.000353723
13 *531:I *127:10 9.61618e-05
14 *545:ZN *532:I 7.27179e-05
15 *12:17 *532:I 0
16 *12:17 *127:10 0
17 *13:13 *127:10 2.39782e-06
18 *14:13 *532:I 0.00163885
19 *14:13 *127:10 0.000839853
20 *43:101 *532:I 3.43535e-05
21 *122:6 *529:I 0.000820096
22 *122:6 *127:10 0.000122244
*RES
1 *528:Z *127:4 4.5 
2 *127:4 *127:10 8.036 
3 *127:10 *533:I 9 
4 *127:10 *532:I 15.448 
5 *127:4 *529:I 9.18 
*END

*D_NET *128 0.00942623
*CONN
*I *546:I I *D gf180mcu_fd_sc_mcu7t5v0__invz_2
*I *544:Z O *D gf180mcu_fd_sc_mcu7t5v0__clkbuf_1
*CAP
1 *546:I 0.00275643
2 *544:Z 0.00275643
3 *546:I *544:I 4.63426e-05
4 *546:I *548:EN 0.000488479
5 *546:I *606:A1 3.75723e-05
6 *546:I *610:I 0
7 *546:I *610:ZN 7.45865e-05
8 *546:I *611:ZN 0
9 *546:I *614:I 0.000169099
10 *546:I *615:Z 0
11 *546:I *616:Z 9.48851e-05
12 *546:I *172:10 0.000120236
13 *546:I *177:6 9.49602e-05
14 *546:I *177:10 8.99624e-05
15 *426:EN *546:I 0
16 *506:Z *546:I 0.00231597
17 *574:I *546:I 0.000288004
18 *620:D *546:I 3.84621e-05
19 *620:RN *546:I 0
20 *39:8 *546:I 0
21 *44:10 *546:I 0
22 *44:12 *546:I 0
23 *44:18 *546:I 5.47986e-05
*RES
1 *544:Z *546:I 41.4 
*END

*D_NET *129 0.0193384
*CONN
*I *550:Z I *D gf180mcu_fd_sc_mcu7t5v0__hold
*I *549:I I *D gf180mcu_fd_sc_mcu7t5v0__clkinv_2
*I *546:ZN O *D gf180mcu_fd_sc_mcu7t5v0__invz_2
*I *548:ZN O *D gf180mcu_fd_sc_mcu7t5v0__invz_4
*CAP
1 *550:Z 3.88793e-05
2 *549:I 0.00104347
3 *546:ZN 0.000831781
4 *548:ZN 0.000498471
5 *129:20 0.00275744
6 *129:12 0.00141955
7 *546:ZN *560:I 0.000135913
8 *546:ZN *562:I 0.000400587
9 *549:I *547:EN 0.00182912
10 *549:I *622:I 1.36398e-06
11 *550:Z *556:A2 5.63044e-06
12 *129:12 *556:A2 0
13 *129:12 *137:21 0
14 *129:20 *544:I 7.93895e-05
15 *129:20 *547:EN 0.000219354
16 *129:20 *556:A2 2.63441e-05
17 *129:20 *562:EN 0.000242474
18 *129:20 *131:20 2.56024e-05
19 *129:20 *137:21 0.000209569
20 *196:I *546:ZN 0.000314907
21 *197:I *549:I 1.77568e-05
22 *197:I *129:12 0.000955223
23 *197:I *129:20 0.000279829
24 *207:I *546:ZN 0
25 *428:EN *546:ZN 0
26 *435:I *546:ZN 3.93698e-05
27 *439:I *549:I 0.000441747
28 *440:EN *549:I 1.29802e-05
29 *441:I *549:I 0.00151285
30 *443:EN *549:I 5.53115e-05
31 *443:I *549:I 0.000761151
32 *447:E *129:20 0.000418233
33 *447:RN *546:ZN 0.00120065
34 *451:A2 *546:ZN 0.000385441
35 *560:ZN *546:ZN 1.0975e-05
36 *613:I *549:I 5.47431e-06
37 *8:15 *546:ZN 3.97877e-05
38 *9:9 *546:ZN 0
39 *21:17 *129:12 0.000330122
40 *21:17 *129:20 0.000197253
41 *22:13 *550:Z 3.22108e-05
42 *22:13 *129:20 3.85961e-05
43 *43:217 *129:12 4.26789e-05
44 *43:251 *546:ZN 0.000251831
45 *56:12 *549:I 2.76472e-05
46 *56:43 *549:I 0.000444655
47 *56:45 *549:I 0.000314957
48 *56:56 *549:I 0.000203364
49 *58:10 *129:12 0
50 *59:8 *549:I 0.000226786
51 *59:10 *549:I 0.00101171
*RES
1 *548:ZN *129:12 18.284 
2 *129:12 *129:20 13.132 
3 *129:20 *546:ZN 17.944 
4 *129:20 *549:I 24.6 
5 *129:12 *550:Z 4.812 
*END

*D_NET *130 0.0089647
*CONN
*I *545:I I *D gf180mcu_fd_sc_mcu7t5v0__invz_2
*I *549:ZN O *D gf180mcu_fd_sc_mcu7t5v0__clkinv_2
*CAP
1 *545:I 0.00211221
2 *549:ZN 0.00211221
3 *545:I *607:A2 8.42801e-05
4 *545:I *610:EN 4.63426e-05
5 *545:I *612:EN 0
6 *180:I *545:I 0.000115856
7 *421:I *545:I 0
8 *424:I *545:I 0.000382027
9 *425:I *545:I 0.000982818
10 *438:I *545:I 0
11 *498:I *545:I 2.81522e-06
12 *525:I *545:I 0.000688636
13 *532:EN *545:I 4.68064e-05
14 *539:I *545:I 2.46957e-05
15 *541:A2 *545:I 0.000498816
16 *607:A1 *545:I 0.000960784
17 *613:I *545:I 0
18 *5:19 *545:I 0.000234643
19 *43:8 *545:I 0
20 *44:12 *545:I 1.95536e-05
21 *44:18 *545:I 4.33796e-05
22 *56:56 *545:I 0.000576992
23 *56:62 *545:I 3.18325e-05
*RES
1 *549:ZN *545:I 40.36 
*END

*D_NET *131 0.0155419
*CONN
*I *554:I I *D gf180mcu_fd_sc_mcu7t5v0__inv_1
*I *545:EN I *D gf180mcu_fd_sc_mcu7t5v0__invz_2
*I *552:Q O *D gf180mcu_fd_sc_mcu7t5v0__latrnq_1
*CAP
1 *554:I 0.00113387
2 *545:EN 0.00162152
3 *552:Q 0.00185011
4 *131:20 0.00460551
5 *554:I *547:EN 1.07369e-05
6 *554:I *560:I 0.000599705
7 *554:I *570:I 5.44006e-06
8 *554:I *623:A2 5.63044e-06
9 *131:20 *569:I 7.51586e-05
10 *131:20 *132:8 1.64684e-05
11 *196:I *554:I 0.000445944
12 *197:I *131:20 0.000161793
13 *426:I *554:I 0.000108287
14 *571:A1 *554:I 0.000572465
15 *573:I *131:20 0.000829193
16 *608:I *554:I 0.000271764
17 *623:A1 *554:I 3.34328e-05
18 *15:13 *554:I 0.00117325
19 *22:13 *131:20 0.000667432
20 *43:21 *554:I 6.8199e-07
21 *43:34 *554:I 0.000739021
22 *43:49 *554:I 7.53682e-05
23 *71:8 *554:I 0.000513523
24 *129:20 *131:20 2.56024e-05
*RES
1 *552:Q *131:20 32.484 
2 *131:20 *545:EN 20.052 
3 *131:20 *554:I 27.644 
*END

*D_NET *132 0.0153474
*CONN
*I *555:I I *D gf180mcu_fd_sc_mcu7t5v0__inv_1
*I *546:EN I *D gf180mcu_fd_sc_mcu7t5v0__invz_2
*I *553:Q O *D gf180mcu_fd_sc_mcu7t5v0__latrnq_1
*CAP
1 *555:I 0.00165905
2 *546:EN 0.00112603
3 *553:Q 0.000495283
4 *132:8 0.00328036
5 *546:EN *561:EN 9.83249e-05
6 *546:EN *561:ZN 0
7 *546:EN *562:EN 0.000606284
8 *546:EN *139:10 5.85489e-05
9 *197:I *132:8 5.57771e-05
10 *198:I *555:I 0
11 *432:E *546:EN 0.000428493
12 *433:D *546:EN 0.000192552
13 *433:E *546:EN 7.47402e-05
14 *440:EN *555:I 3.05725e-05
15 *440:I *555:I 0.000219886
16 *441:EN *555:I 0.000404667
17 *441:I *555:I 0
18 *443:EN *555:I 9.03122e-05
19 *445:Z *555:I 0.000202022
20 *448:D *546:EN 0.000337769
21 *448:E *546:EN 0.000183134
22 *450:I *546:EN 8.10026e-05
23 *545:ZN *546:EN 1.71324e-06
24 *558:I *555:I 0.000143466
25 *573:I *132:8 2.07977e-05
26 *574:I *555:I 0.000860627
27 *8:15 *546:EN 0.000137138
28 *22:13 *132:8 0.000119229
29 *23:15 *555:I 0.00163585
30 *23:15 *132:8 0.00217894
31 *43:55 *546:EN 6.342e-05
32 *43:57 *546:EN 7.77342e-05
33 *43:59 *546:EN 0.000271894
34 *43:67 *546:EN 8.21146e-06
35 *56:12 *555:I 0
36 *58:52 *555:I 0.00011328
37 *58:52 *132:8 7.38209e-05
38 *131:20 *132:8 1.64684e-05
*RES
1 *553:Q *132:8 15.136 
2 *132:8 *546:EN 20.648 
3 *132:8 *555:I 26.888 
*END

*D_NET *133 0.00937194
*CONN
*I *547:EN I *D gf180mcu_fd_sc_mcu7t5v0__invz_8
*I *554:ZN O *D gf180mcu_fd_sc_mcu7t5v0__inv_1
*CAP
1 *547:EN 0.00115892
2 *554:ZN 0.00115892
3 *547:EN *544:I 0.00104358
4 *547:EN *564:I 0.000818655
5 *547:EN *570:I 1.60338e-05
6 *547:EN *613:EN 0
7 *547:EN *623:A2 0.000173346
8 *547:EN *139:10 0.000346468
9 *547:EN *139:23 0.000976467
10 *437:I *547:EN 0.000385441
11 *438:I *547:EN 0
12 *443:I *547:EN 0.0006688
13 *447:E *547:EN 0.000427061
14 *549:I *547:EN 0.00182912
15 *554:I *547:EN 1.07369e-05
16 *572:I *547:EN 0.000139042
17 *129:20 *547:EN 0.000219354
*RES
1 *554:ZN *547:EN 33.496 
*END

*D_NET *134 0.0100463
*CONN
*I *548:EN I *D gf180mcu_fd_sc_mcu7t5v0__invz_4
*I *555:ZN O *D gf180mcu_fd_sc_mcu7t5v0__inv_1
*CAP
1 *548:EN 0.00176152
2 *555:ZN 0.00176152
3 *548:EN *544:I 0.00167761
4 *548:EN *569:I 0
5 *548:EN *137:21 0.000273564
6 *548:EN *147:12 9.1744e-05
7 *437:I *548:EN 0.00117943
8 *451:A2 *548:EN 0.000737647
9 *546:I *548:EN 0.000488479
10 *572:I *548:EN 0.0006776
11 *574:I *548:EN 0.000794728
12 *609:I *548:EN 0.000398723
13 *22:13 *548:EN 0.000203739
*RES
1 *555:ZN *548:EN 41.4 
*END

*D_NET *135 0.00151275
*CONN
*I *553:E I *D gf180mcu_fd_sc_mcu7t5v0__latrnq_1
*I *552:E I *D gf180mcu_fd_sc_mcu7t5v0__latrnq_1
*I *556:Z O *D gf180mcu_fd_sc_mcu7t5v0__xor2_1
*CAP
1 *553:E 0.000221471
2 *552:E 0.000287982
3 *556:Z 6.65111e-05
4 *198:I *553:E 0.000113027
5 *553:RN *553:E 5.37778e-05
6 *573:I *552:E 6.20303e-05
7 *573:I *553:E 0.000191446
8 *19:11 *552:E 0.000336439
9 *19:11 *553:E 0.000164321
10 *43:217 *553:E 1.57479e-05
*RES
1 *556:Z *552:E 9.936 
2 *552:E *553:E 11.392 
*END

*D_NET *136 0.00235528
*CONN
*I *556:A2 I *D gf180mcu_fd_sc_mcu7t5v0__xor2_1
*I *542:Z O *D gf180mcu_fd_sc_mcu7t5v0__clkbuf_2
*CAP
1 *556:A2 0.000536009
2 *542:Z 0.000536009
3 *556:A2 *137:21 4.58772e-05
4 *550:Z *556:A2 5.63044e-06
5 *572:I *556:A2 0
6 *21:17 *556:A2 0.000306447
7 *22:13 *556:A2 4.09194e-06
8 *58:10 *556:A2 0.00089487
9 *129:12 *556:A2 0
10 *129:20 *556:A2 2.63441e-05
*RES
1 *542:Z *556:A2 23.408 
*END

*D_NET *137 0.0120169
*CONN
*I *544:I I *D gf180mcu_fd_sc_mcu7t5v0__clkbuf_1
*I *547:I I *D gf180mcu_fd_sc_mcu7t5v0__invz_8
*I *548:I I *D gf180mcu_fd_sc_mcu7t5v0__invz_4
*I *543:Z O *D gf180mcu_fd_sc_mcu7t5v0__clkbuf_2
*CAP
1 *544:I 0.0012793
2 *547:I 4.23397e-05
3 *548:I 0
4 *543:Z 0.000436063
5 *137:21 0.00205388
6 *137:10 0.0011683
7 *544:I *564:I 0.000776894
8 *544:I *139:10 0.000355286
9 *544:I *139:23 0.000943513
10 *547:I *569:I 0
11 *137:10 *567:E 3.96556e-05
12 *439:I *544:I 0.000629831
13 *443:I *544:I 3.35294e-05
14 *545:ZN *547:I 0.000194522
15 *546:I *544:I 4.63426e-05
16 *547:EN *544:I 0.00104358
17 *548:EN *544:I 0.00167761
18 *548:EN *137:21 0.000273564
19 *556:A2 *137:21 4.58772e-05
20 *568:RN *137:10 0.000103933
21 *572:I *137:21 1.90661e-05
22 *21:17 *137:10 0.000124193
23 *21:17 *137:21 3.54865e-05
24 *43:217 *137:10 0
25 *59:10 *544:I 0.000405178
26 *115:16 *137:10 0
27 *129:12 *137:21 0
28 *129:20 *544:I 7.93895e-05
29 *129:20 *137:21 0.000209569
*RES
1 *543:Z *137:10 8.14 
2 *137:10 *548:I 4.5 
3 *137:10 *137:21 10.324 
4 *137:21 *547:I 9.52 
5 *137:21 *544:I 28.136 
*END

*D_NET *138 0.00195512
*CONN
*I *561:I I *D gf180mcu_fd_sc_mcu7t5v0__invz_2
*I *559:Z O *D gf180mcu_fd_sc_mcu7t5v0__clkbuf_1
*CAP
1 *561:I 8.6183e-05
2 *559:Z 8.6183e-05
3 *198:I *561:I 0.000308728
4 *441:EN *561:I 0.00085643
5 *450:I *561:I 0.000617599
*RES
1 *559:Z *561:I 21.64 
*END

*D_NET *139 0.00660776
*CONN
*I *564:I I *D gf180mcu_fd_sc_mcu7t5v0__clkinv_2
*I *565:Z I *D gf180mcu_fd_sc_mcu7t5v0__hold
*I *561:ZN O *D gf180mcu_fd_sc_mcu7t5v0__invz_2
*I *563:ZN O *D gf180mcu_fd_sc_mcu7t5v0__invz_4
*CAP
1 *564:I 4.7325e-05
2 *565:Z 0
3 *561:ZN 0.000426985
4 *563:ZN 0.000111573
5 *139:23 9.85702e-05
6 *139:10 0.000589804
7 *183:I *561:ZN 4.36604e-05
8 *448:E *561:ZN 2.33885e-05
9 *448:E *139:10 0.000316249
10 *450:I *561:ZN 5.96941e-05
11 *451:A1 *561:ZN 0.00060532
12 *544:I *564:I 0.000776894
13 *544:I *139:10 0.000355286
14 *544:I *139:23 0.000943513
15 *546:EN *561:ZN 0
16 *546:EN *139:10 5.85489e-05
17 *547:EN *564:I 0.000818655
18 *547:EN *139:10 0.000346468
19 *547:EN *139:23 0.000976467
20 *8:15 *561:ZN 9.35542e-06
*RES
1 *563:ZN *139:10 10.872 
2 *139:10 *561:ZN 12.328 
3 *139:10 *139:23 2.6 
4 *139:23 *565:Z 9 
5 *139:23 *564:I 11.184 
*END

*D_NET *140 0.00425529
*CONN
*I *560:I I *D gf180mcu_fd_sc_mcu7t5v0__invz_2
*I *564:ZN O *D gf180mcu_fd_sc_mcu7t5v0__clkinv_2
*CAP
1 *560:I 0.00117394
2 *564:ZN 0.00117394
3 *560:I *570:I 0.000178113
4 *560:I *621:E 2.62725e-05
5 *196:I *560:I 0.000262946
6 *423:I *560:I 0
7 *427:I *560:I 6.75181e-05
8 *437:I *560:I 8.72247e-05
9 *443:EN *560:I 9.84961e-06
10 *443:I *560:I 1.70372e-05
11 *546:ZN *560:I 0.000135913
12 *554:I *560:I 0.000599705
13 *560:ZN *560:I 8.97565e-05
14 *572:I *560:I 0
15 *623:A1 *560:I 0.000194522
16 *8:15 *560:I 6.84196e-06
17 *37:12 *560:I 0.000231702
*RES
1 *564:ZN *560:I 28.296 
*END

*D_NET *141 0.00682864
*CONN
*I *569:I I *D gf180mcu_fd_sc_mcu7t5v0__inv_1
*I *560:EN I *D gf180mcu_fd_sc_mcu7t5v0__invz_2
*I *567:Q O *D gf180mcu_fd_sc_mcu7t5v0__latrnq_1
*CAP
1 *569:I 0.00139894
2 *560:EN 0.000130183
3 *567:Q 0
4 *141:4 0.00152912
5 *569:I *562:EN 0.000102991
6 *569:I *571:A2 0.000648383
7 *569:I *142:10 0.000278763
8 *569:I *145:12 2.14739e-05
9 clockp[0] *569:I 1.8858e-05
10 *184:I *569:I 0.000256274
11 *433:D *560:EN 0.000913499
12 *436:A2 *560:EN 2.33885e-05
13 *436:A2 *569:I 7.23005e-05
14 *545:ZN *569:I 0
15 *547:I *569:I 0
16 *548:EN *569:I 0
17 *571:A1 *569:I 5.04491e-05
18 *15:13 *560:EN 0.0010835
19 *21:17 *560:EN 0.000208806
20 *21:17 *569:I 0
21 *22:13 *569:I 1.65449e-05
22 *46:25 *560:EN 0
23 *46:25 *569:I 0
24 *131:20 *569:I 7.51586e-05
*RES
1 *567:Q *141:4 4.5 
2 *141:4 *560:EN 16.828 
3 *141:4 *569:I 14.38 
*END

*D_NET *142 0.0120413
*CONN
*I *570:I I *D gf180mcu_fd_sc_mcu7t5v0__inv_1
*I *561:EN I *D gf180mcu_fd_sc_mcu7t5v0__invz_2
*I *568:Q O *D gf180mcu_fd_sc_mcu7t5v0__latrnq_1
*CAP
1 *570:I 0.000763403
2 *561:EN 0.000562529
3 *568:Q 0.000369917
4 *142:10 0.00169585
5 *561:EN *562:EN 0.00190699
6 *570:I *563:EN 0.00243144
7 *142:10 *145:12 0
8 clockp[0] *561:EN 0
9 *196:I *570:I 0.000392841
10 *196:I *142:10 0.000253488
11 *448:RN *570:I 0.000115195
12 *450:I *561:EN 5.81438e-06
13 *545:ZN *561:EN 0.000640654
14 *546:EN *561:EN 9.83249e-05
15 *547:EN *570:I 1.60338e-05
16 *554:I *570:I 5.44006e-06
17 *557:I *570:I 3.37332e-05
18 *557:I *142:10 2.17565e-05
19 *560:I *570:I 0.000178113
20 *569:I *142:10 0.000278763
21 *623:A1 *570:I 0.000624866
22 *21:17 *142:10 1.84122e-05
23 *37:12 *570:I 0.000991164
24 *43:34 *570:I 8.22864e-05
25 *46:31 *142:10 0.000417168
26 *58:35 *561:EN 0.000137132
*RES
1 *568:Q *142:10 12.744 
2 *142:10 *561:EN 16.176 
3 *142:10 *570:I 20.44 
*END

*D_NET *143 0.00573276
*CONN
*I *562:EN I *D gf180mcu_fd_sc_mcu7t5v0__invz_8
*I *569:ZN O *D gf180mcu_fd_sc_mcu7t5v0__inv_1
*CAP
1 *562:EN 0.000632941
2 *569:ZN 0.000632941
3 clockp[0] *562:EN 0.000337769
4 *197:I *562:EN 0.000919377
5 *448:D *562:EN 0.000337769
6 *545:ZN *562:EN 1.32185e-05
7 *546:EN *562:EN 0.000606284
8 *561:EN *562:EN 0.00190699
9 *569:I *562:EN 0.000102991
10 *129:20 *562:EN 0.000242474
*RES
1 *569:ZN *562:EN 27.984 
*END

*D_NET *144 0.00461283
*CONN
*I *563:EN I *D gf180mcu_fd_sc_mcu7t5v0__invz_4
*I *570:ZN O *D gf180mcu_fd_sc_mcu7t5v0__inv_1
*CAP
1 *563:EN 0.000823633
2 *570:ZN 0.000823633
3 *423:I *563:EN 4.79893e-05
4 *447:RN *563:EN 3.68494e-05
5 *570:I *563:EN 0.00243144
6 *621:D *563:EN 7.43807e-05
7 *23:15 *563:EN 0.000146714
8 *43:251 *563:EN 8.14679e-05
9 *52:8 *563:EN 0.000146714
*RES
1 *570:ZN *563:EN 27.152 
*END

*D_NET *145 0.00352891
*CONN
*I *568:E I *D gf180mcu_fd_sc_mcu7t5v0__latrnq_1
*I *567:E I *D gf180mcu_fd_sc_mcu7t5v0__latrnq_1
*I *571:Z O *D gf180mcu_fd_sc_mcu7t5v0__xor2_1
*CAP
1 *568:E 0
2 *567:E 0.000238975
3 *571:Z 0.000697898
4 *145:12 0.000936873
5 *184:I *145:12 0.000247057
6 *196:I *145:12 0
7 *199:I *567:E 0.000247057
8 *568:RN *567:E 0.00086392
9 *569:I *145:12 2.14739e-05
10 *572:I *145:12 0.000106133
11 *21:17 *145:12 0
12 *22:13 *145:12 8.13522e-05
13 *43:206 *567:E 1.23163e-05
14 *43:217 *567:E 3.62028e-05
15 *46:31 *145:12 0
16 *137:10 *567:E 3.96556e-05
17 *142:10 *145:12 0
*RES
1 *571:Z *145:12 17.868 
2 *145:12 *567:E 7.516 
3 *145:12 *568:E 4.5 
*END

*D_NET *146 0.00100155
*CONN
*I *571:A2 I *D gf180mcu_fd_sc_mcu7t5v0__xor2_1
*I *557:Z O *D gf180mcu_fd_sc_mcu7t5v0__clkbuf_2
*CAP
1 *571:A2 0.000115257
2 *557:Z 0.000115257
3 *545:ZN *571:A2 0
4 *569:I *571:A2 0.000648383
5 *571:A1 *571:A2 0.000122656
*RES
1 *557:Z *571:A2 10.768 
*END

*D_NET *147 0.0054456
*CONN
*I *559:I I *D gf180mcu_fd_sc_mcu7t5v0__clkbuf_1
*I *563:I I *D gf180mcu_fd_sc_mcu7t5v0__invz_4
*I *562:I I *D gf180mcu_fd_sc_mcu7t5v0__invz_8
*I *558:Z O *D gf180mcu_fd_sc_mcu7t5v0__clkbuf_2
*CAP
1 *559:I 0.000186934
2 *563:I 0
3 *562:I 0.00029325
4 *558:Z 0
5 *147:12 0.000950115
6 *147:4 0.000843799
7 *443:EN *147:12 0.000201316
8 *451:A2 *147:12 0.000734718
9 *546:ZN *562:I 0.000400587
10 *548:EN *147:12 9.1744e-05
11 *557:I *562:I 0.000192871
12 *560:ZN *562:I 1.07369e-05
13 *572:I *147:12 0.000976478
14 *8:15 *562:I 0.000279793
15 *23:15 *147:12 0.000277152
16 *51:6 *559:I 6.10561e-06
*RES
1 *558:Z *147:4 4.5 
2 *147:4 *147:12 15.864 
3 *147:12 *562:I 7.828 
4 *147:12 *563:I 4.5 
5 *147:4 *559:I 5.956 
*END

*D_NET *148 0.00860597
*CONN
*I *580:I I *D gf180mcu_fd_sc_mcu7t5v0__invz_2
*I *578:Z O *D gf180mcu_fd_sc_mcu7t5v0__clkbuf_1
*CAP
1 *580:I 0.00100467
2 *578:Z 0.00100467
3 *580:I *578:I 5.13977e-05
4 *580:I *581:I 0.000634987
5 *580:I *582:EN 0.000563358
6 *580:I *583:I 0.000104502
7 *580:I *589:I 0
8 *580:I *596:EN 3.20057e-06
9 *461:Z *580:I 5.78216e-06
10 *466:A1 *580:I 0.000246666
11 *472:EN *580:I 0.00109524
12 *507:RN *580:I 0.000295798
13 *605:A1 *580:I 0.0015218
14 *26:15 *580:I 2.15961e-05
15 *27:13 *580:I 0.000294741
16 *43:297 *580:I 0.000155991
17 *69:14 *580:I 0.000534088
18 *69:20 *580:I 0.00101466
19 *99:12 *580:I 5.28381e-05
*RES
1 *578:Z *580:I 33.912 
*END

*D_NET *149 0.0126514
*CONN
*I *583:I I *D gf180mcu_fd_sc_mcu7t5v0__clkinv_2
*I *580:ZN O *D gf180mcu_fd_sc_mcu7t5v0__invz_2
*I *584:Z I *D gf180mcu_fd_sc_mcu7t5v0__hold
*I *582:ZN O *D gf180mcu_fd_sc_mcu7t5v0__invz_4
*CAP
1 *583:I 0.0010603
2 *580:ZN 0
3 *584:Z 0.000140247
4 *582:ZN 0
5 *149:17 0.00142966
6 *149:4 0.000509611
7 *583:I *578:I 1.95288e-05
8 *583:I *579:I 0.000135883
9 *583:I *589:I 0.00508341
10 *149:17 *589:I 0.000799983
11 *149:17 *152:8 0.000553101
12 *149:17 *157:10 9.38372e-05
13 *463:D *583:I 0.000452472
14 *476:Z *583:I 0.000238073
15 *507:RN *583:I 0.00013393
16 *514:I *584:Z 0.000728312
17 *514:I *149:17 0.000306249
18 *516:I *584:Z 8.45065e-05
19 *516:I *149:17 3.44535e-05
20 *577:I *583:I 0.000188337
21 *580:I *583:I 0.000104502
22 *12:17 *583:I 0.000419179
23 *43:297 *583:I 0.00013585
*RES
1 *582:ZN *149:4 4.5 
2 *149:4 *584:Z 6.476 
3 *149:4 *149:17 9.076 
4 *149:17 *580:ZN 9 
5 *149:17 *583:I 24.184 
*END

*D_NET *150 0.0129895
*CONN
*I *579:I I *D gf180mcu_fd_sc_mcu7t5v0__invz_2
*I *583:ZN O *D gf180mcu_fd_sc_mcu7t5v0__clkinv_2
*CAP
1 *579:I 0.00105568
2 *583:ZN 0.00105568
3 *579:I *578:I 0.00298001
4 *579:I *589:I 0.00232766
5 *579:I *152:8 0.000369209
6 *446:Z *579:I 0.00016681
7 *485:I *579:I 0.000331132
8 *487:EN *579:I 0.000507644
9 *514:I *579:I 1.70957e-06
10 *533:EN *579:I 0
11 *576:I *579:I 0.00279572
12 *579:ZN *579:I 0.000597435
13 *583:I *579:I 0.000135883
14 *585:Z *579:I 0.000417698
15 *56:62 *579:I 0.000229531
16 *83:44 *579:I 1.77406e-05
*RES
1 *583:ZN *579:I 39.736 
*END

*D_NET *151 0.0193061
*CONN
*I *579:EN I *D gf180mcu_fd_sc_mcu7t5v0__invz_2
*I *588:I I *D gf180mcu_fd_sc_mcu7t5v0__inv_1
*I *586:Q O *D gf180mcu_fd_sc_mcu7t5v0__latrnq_1
*CAP
1 *579:EN 0.000281892
2 *588:I 0.00120057
3 *586:Q 9.87285e-05
4 *151:8 0.00158119
5 *579:EN *586:E 2.6741e-05
6 *579:EN *602:E 0.000120806
7 *579:EN *165:10 0.00031697
8 *588:I *581:EN 0.00577859
9 *588:I *596:EN 9.69251e-05
10 *588:I *165:10 0.00251788
11 *588:I *167:23 5.93413e-05
12 *151:8 *162:12 5.89482e-05
13 *204:I *579:EN 0.00103152
14 *204:I *588:I 0.00153061
15 *478:E *579:EN 3.45498e-05
16 *533:EN *579:EN 0.000537805
17 *585:Z *579:EN 0.000134728
18 *26:15 *588:I 0.00180437
19 *43:135 *579:EN 0.000491544
20 *69:10 *588:I 1.01781e-05
21 *77:10 *579:EN 0.000206996
22 *77:10 *588:I 0
23 *77:10 *151:8 0.000569975
24 *83:8 *579:EN 0.000103788
25 *83:8 *151:8 0.000711434
*RES
1 *586:Q *151:8 6.788 
2 *151:8 *588:I 38.044 
3 *151:8 *579:EN 19.22 
*END

*D_NET *152 0.0136339
*CONN
*I *589:I I *D gf180mcu_fd_sc_mcu7t5v0__inv_1
*I *580:EN I *D gf180mcu_fd_sc_mcu7t5v0__invz_2
*I *587:Q O *D gf180mcu_fd_sc_mcu7t5v0__latrnq_1
*CAP
1 *589:I 0.000959604
2 *580:EN 1.55448e-05
3 *587:Q 0.000344411
4 *152:8 0.00131956
5 *589:I *578:I 6.01733e-05
6 *589:I *582:EN 0.000256274
7 *152:8 *157:10 1.92353e-05
8 *190:I *580:EN 0.000113027
9 *485:I *589:I 0.000331132
10 *509:I *589:I 0.000701132
11 *516:I *580:EN 4.18157e-05
12 *577:I *589:I 0.000223155
13 *579:I *589:I 0.00232766
14 *579:I *152:8 0.000369209
15 *579:ZN *152:8 2.17376e-05
16 *580:I *589:I 0
17 *583:I *589:I 0.00508341
18 *69:10 *589:I 0
19 *69:12 *589:I 0
20 *99:12 *589:I 9.37153e-05
21 *149:17 *589:I 0.000799983
22 *149:17 *152:8 0.000553101
*RES
1 *587:Q *152:8 12.224 
2 *152:8 *580:EN 9.312 
3 *152:8 *589:I 29.8 
*END

*D_NET *153 0.0104273
*CONN
*I *581:EN I *D gf180mcu_fd_sc_mcu7t5v0__invz_8
*I *588:ZN O *D gf180mcu_fd_sc_mcu7t5v0__inv_1
*CAP
1 *581:EN 0.000877573
2 *588:ZN 0.000877573
3 *581:EN *593:I 0.000197148
4 *581:EN *596:EN 9.35542e-06
5 *581:EN *167:23 4.33918e-05
6 *455:EN *581:EN 0.000198183
7 *457:EN *581:EN 0.00165361
8 *474:I *581:EN 0.000761151
9 *588:I *581:EN 0.00577859
10 *69:10 *581:EN 3.07277e-05
*RES
1 *588:ZN *581:EN 34.848 
*END

*D_NET *154 0.0120531
*CONN
*I *582:EN I *D gf180mcu_fd_sc_mcu7t5v0__invz_4
*I *589:ZN O *D gf180mcu_fd_sc_mcu7t5v0__inv_1
*CAP
1 *582:EN 0.00196892
2 *589:ZN 0.00196892
3 *582:EN *578:I 0
4 *582:EN *581:I 6.1808e-05
5 *189:I *582:EN 0.00190821
6 *191:I *582:EN 0.000115715
7 *193:I *582:EN 0
8 *202:I *582:EN 0.000151966
9 *490:Z *582:EN 1.76416e-05
10 *492:D *582:EN 0.000188241
11 *500:ZN *582:EN 0.000276007
12 *502:EN *582:EN 0.000148708
13 *503:EN *582:EN 0
14 *509:I *582:EN 0
15 *515:EN *582:EN 0.000335982
16 *515:I *582:EN 0
17 *524:I *582:EN 9.51777e-05
18 *580:I *582:EN 0.000563358
19 *589:I *582:EN 0.000256274
20 *605:A1 *582:EN 6.47976e-05
21 *26:15 *582:EN 0.000404039
22 *92:10 *582:EN 1.02379e-05
23 *93:10 *582:EN 0.0012147
24 *93:16 *582:EN 0.00199136
25 *104:10 *582:EN 1.90528e-05
26 *104:39 *582:EN 0.000291944
*RES
1 *589:ZN *582:EN 41.4 
*END

*D_NET *155 0.0110037
*CONN
*I *587:E I *D gf180mcu_fd_sc_mcu7t5v0__latrnq_1
*I *586:E I *D gf180mcu_fd_sc_mcu7t5v0__latrnq_1
*I *590:Z O *D gf180mcu_fd_sc_mcu7t5v0__xor2_1
*CAP
1 *587:E 0
2 *586:E 0.000484903
3 *590:Z 0.00046017
4 *155:14 0.000945073
5 *193:I *155:14 0.000922543
6 *202:I *155:14 0.00013285
7 *204:I *586:E 8.13929e-05
8 *478:E *586:E 0.000790371
9 *523:E *155:14 7.72243e-05
10 *526:A2 *155:14 0.00188272
11 *533:EN *586:E 7.63325e-05
12 *533:EN *155:14 0.00189502
13 *540:I *586:E 0.000113385
14 *556:A1 *155:14 6.91919e-05
15 *579:EN *586:E 2.6741e-05
16 *587:D *155:14 0.000962554
17 *602:D *586:E 3.22108e-05
18 *6:11 *586:E 5.13977e-05
19 *8:15 *155:14 0.000332849
20 *10:13 *155:14 0.00019118
21 *28:13 *586:E 0.000189052
22 *28:13 *155:14 0.000677147
23 *43:135 *586:E 0.000213514
24 *43:135 *155:14 1.91879e-05
25 *81:43 *155:14 0.000182208
26 *104:39 *155:14 0.000194511
*RES
1 *590:Z *155:14 25.044 
2 *155:14 *586:E 10.428 
3 *155:14 *587:E 4.5 
*END

*D_NET *156 0.0126254
*CONN
*I *590:A2 I *D gf180mcu_fd_sc_mcu7t5v0__xor2_1
*I *576:Z O *D gf180mcu_fd_sc_mcu7t5v0__clkbuf_2
*CAP
1 *590:A2 0.000589148
2 *576:Z 0.000589148
3 *467:I *590:A2 0.000249469
4 *523:D *590:A2 0.00102691
5 *525:I *590:A2 0.00320297
6 *526:A2 *590:A2 3.34587e-05
7 *530:I *590:A2 7.32346e-05
8 *590:A1 *590:A2 0.000316564
9 *9:9 *590:A2 0.00489234
10 *43:115 *590:A2 0.00107382
11 *43:131 *590:A2 3.4596e-05
12 *111:8 *590:A2 0.000543761
*RES
1 *576:Z *590:A2 35.056 
*END

*D_NET *157 0.0175669
*CONN
*I *578:I I *D gf180mcu_fd_sc_mcu7t5v0__clkbuf_1
*I *581:I I *D gf180mcu_fd_sc_mcu7t5v0__invz_8
*I *582:I I *D gf180mcu_fd_sc_mcu7t5v0__invz_4
*I *577:Z O *D gf180mcu_fd_sc_mcu7t5v0__clkbuf_2
*CAP
1 *578:I 0.000855807
2 *581:I 0.000441751
3 *582:I 0
4 *577:Z 0.00110056
5 *157:21 0.00169957
6 *157:10 0.00150257
7 *190:I *157:21 0.000144552
8 *446:Z *578:I 4.18042e-05
9 *461:Z *578:I 1.12327e-05
10 *479:I *581:I 0.00107879
11 *487:EN *578:I 0.000498827
12 *496:A2 *581:I 1.32185e-05
13 *500:EN *578:I 0.000235259
14 *524:I *578:I 0.00088373
15 *524:I *157:21 2.66445e-05
16 *576:I *578:I 0.00109588
17 *576:I *157:21 0.000752343
18 *579:I *578:I 0.00298001
19 *579:ZN *157:10 0
20 *580:I *578:I 5.13977e-05
21 *580:I *581:I 0.000634987
22 *582:EN *578:I 0
23 *582:EN *581:I 6.1808e-05
24 *583:I *578:I 1.95288e-05
25 *587:D *157:10 3.20057e-06
26 *589:I *578:I 6.01733e-05
27 *605:A1 *578:I 0.00237227
28 *26:15 *581:I 9.06272e-05
29 *26:15 *157:21 6.3964e-05
30 *27:13 *157:10 0
31 *43:149 *157:10 6.52475e-06
32 *43:297 *581:I 3.08154e-05
33 *63:10 *581:I 6.78926e-05
34 *63:20 *581:I 0
35 *92:10 *581:I 4.78732e-05
36 *99:12 *578:I 0.000325488
37 *110:8 *157:21 0.000254693
38 *149:17 *157:10 9.38372e-05
39 *152:8 *157:10 1.92353e-05
*RES
1 *577:Z *157:10 20.676 
2 *157:10 *582:I 4.5 
3 *157:10 *157:21 8.66 
4 *157:21 *581:I 14.096 
5 *157:21 *578:I 25.224 
*END

*D_NET *158 0.00762003
*CONN
*I *595:I I *D gf180mcu_fd_sc_mcu7t5v0__invz_2
*I *593:Z O *D gf180mcu_fd_sc_mcu7t5v0__clkbuf_1
*CAP
1 *595:I 0.00141497
2 *593:Z 0.00141497
3 *595:I *594:I 0.000113027
4 *595:I *597:EN 4.2766e-05
5 *595:I *598:I 0.000796404
6 *595:I *604:I 3.77594e-05
7 *187:I *595:I 0
8 *203:I *595:I 0.000111194
9 *453:I *595:I 4.19394e-05
10 *455:I *595:I 1.07369e-05
11 *458:EN *595:I 0.00014584
12 *472:I *595:I 0.000564326
13 *481:A1 *595:I 6.40967e-05
14 *481:A2 *595:I 0.000534088
15 *63:16 *595:I 0.00010585
16 *63:36 *595:I 0.000258465
17 *76:12 *595:I 0.000367043
18 *84:8 *595:I 0.00159655
*RES
1 *593:Z *595:I 37.448 
*END

*D_NET *159 0.0122789
*CONN
*I *599:Z I *D gf180mcu_fd_sc_mcu7t5v0__hold
*I *598:I I *D gf180mcu_fd_sc_mcu7t5v0__clkinv_2
*I *595:ZN O *D gf180mcu_fd_sc_mcu7t5v0__invz_2
*I *597:ZN O *D gf180mcu_fd_sc_mcu7t5v0__invz_4
*CAP
1 *599:Z 0.00013427
2 *598:I 0.000540283
3 *595:ZN 5.08069e-05
4 *597:ZN 0.000157888
5 *159:12 0.00123814
6 *159:6 0.000939212
7 *595:ZN *594:I 0.000247057
8 *598:I *594:I 0.000256285
9 *598:I *604:I 0.00608538
10 *599:Z *603:I 0.000142811
11 *599:Z *161:8 5.04038e-05
12 *159:12 *594:EN 5.78929e-06
13 *159:12 *594:I 3.83857e-05
14 *159:12 *604:I 0.00037585
15 *201:I *599:Z 0.000820149
16 *481:A1 *598:I 7.05665e-05
17 *516:I *159:6 0
18 *516:I *159:12 0
19 *595:I *598:I 0.000796404
20 *63:10 *159:6 3.29341e-05
21 *63:10 *159:12 4.7159e-05
22 *63:16 *159:12 1.60338e-05
23 *80:12 *598:I 0.000139799
24 *80:12 *159:12 9.33122e-05
*RES
1 *597:ZN *159:6 5.436 
2 *159:6 *159:12 9.076 
3 *159:12 *595:ZN 9.728 
4 *159:12 *598:I 25.224 
5 *159:6 *599:Z 15.684 
*END

*D_NET *160 0.0106373
*CONN
*I *594:I I *D gf180mcu_fd_sc_mcu7t5v0__invz_2
*I *598:ZN O *D gf180mcu_fd_sc_mcu7t5v0__clkinv_2
*CAP
1 *594:I 0.000888489
2 *598:ZN 0.000888489
3 *594:I *604:I 0.00181636
4 *187:I *594:I 0.00613889
5 *479:I *594:I 6.52288e-06
6 *595:I *594:I 0.000113027
7 *595:ZN *594:I 0.000247057
8 *598:I *594:I 0.000256285
9 *63:10 *594:I 0.000111263
10 *63:16 *594:I 0.000103788
11 *76:12 *594:I 2.34155e-05
12 *80:12 *594:I 5.36452e-06
13 *159:12 *594:I 3.83857e-05
*RES
1 *598:ZN *594:I 38.28 
*END

*D_NET *161 0.0132513
*CONN
*I *603:I I *D gf180mcu_fd_sc_mcu7t5v0__inv_1
*I *594:EN I *D gf180mcu_fd_sc_mcu7t5v0__invz_2
*I *601:Q O *D gf180mcu_fd_sc_mcu7t5v0__latrnq_1
*CAP
1 *603:I 0.00134325
2 *594:EN 8.44467e-05
3 *601:Q 0.000320589
4 *161:8 0.00174828
5 *594:EN *167:12 5.1073e-06
6 *603:I *593:I 1.78946e-05
7 *188:I *603:I 0.000257318
8 *201:I *603:I 0.00104178
9 *201:I *161:8 4.25171e-05
10 *203:I *603:I 0.00573122
11 *203:I *161:8 0.000755629
12 *454:I *603:I 0.000137027
13 *455:I *603:I 0.00109524
14 *470:ZN *603:I 0.00011505
15 *516:I *594:EN 3.4596e-05
16 *599:Z *603:I 0.000142811
17 *599:Z *161:8 5.04038e-05
18 *81:8 *603:I 0.000322345
19 *159:12 *594:EN 5.78929e-06
*RES
1 *601:Q *161:8 11.184 
2 *161:8 *594:EN 9.52 
3 *161:8 *603:I 31.048 
*END

*D_NET *162 0.0143788
*CONN
*I *595:EN I *D gf180mcu_fd_sc_mcu7t5v0__invz_2
*I *604:I I *D gf180mcu_fd_sc_mcu7t5v0__inv_1
*I *602:Q O *D gf180mcu_fd_sc_mcu7t5v0__latrnq_1
*CAP
1 *595:EN 0
2 *604:I 0.000786448
3 *602:Q 0.000679534
4 *162:12 0.00146598
5 *162:12 *601:E 0
6 *187:I *604:I 0.000442801
7 *477:RN *162:12 0
8 *481:A1 *162:12 0.000758929
9 *594:I *604:I 0.00181636
10 *595:I *604:I 3.77594e-05
11 *598:I *604:I 0.00608538
12 *43:160 *162:12 0
13 *77:10 *162:12 0.000346997
14 *80:12 *604:I 0.000116532
15 *80:12 *162:12 0.000142425
16 *82:16 *162:12 0.00106685
17 *83:8 *162:12 0.000198036
18 *151:8 *162:12 5.89482e-05
19 *159:12 *604:I 0.00037585
*RES
1 *602:Q *162:12 20.572 
2 *162:12 *604:I 35.028 
3 *162:12 *595:EN 4.5 
*END

*D_NET *163 0.00757543
*CONN
*I *596:EN I *D gf180mcu_fd_sc_mcu7t5v0__invz_8
*I *603:ZN O *D gf180mcu_fd_sc_mcu7t5v0__inv_1
*CAP
1 *596:EN 0.00114307
2 *603:ZN 0.00114307
3 *596:EN *593:I 2.81522e-06
4 *204:I *596:EN 0.00140098
5 *456:EN *596:EN 0.000209505
6 *464:I *596:EN 0.00148152
7 *580:I *596:EN 3.20057e-06
8 *581:EN *596:EN 9.35542e-06
9 *588:I *596:EN 9.69251e-05
10 *27:13 *596:EN 0.00165738
11 *69:10 *596:EN 0.000118776
12 *69:12 *596:EN 2.63347e-05
13 *69:14 *596:EN 0.000119552
14 *69:20 *596:EN 0.000162943
*RES
1 *603:ZN *596:EN 33.6 
*END

*D_NET *164 0.0101699
*CONN
*I *597:EN I *D gf180mcu_fd_sc_mcu7t5v0__invz_4
*I *604:ZN O *D gf180mcu_fd_sc_mcu7t5v0__inv_1
*CAP
1 *597:EN 0.000908656
2 *604:ZN 0.000908656
3 *597:EN *593:I 0.0016491
4 *201:I *597:EN 0.00534716
5 *455:I *597:EN 0
6 *456:I *597:EN 0.000137132
7 *459:I *597:EN 0.000116466
8 *471:EN *597:EN 0.000704704
9 *595:I *597:EN 4.2766e-05
10 *72:8 *597:EN 0
11 *72:21 *597:EN 0
12 *77:10 *597:EN 0.000355286
*RES
1 *604:ZN *597:EN 34.952 
*END

*D_NET *165 0.00737521
*CONN
*I *601:E I *D gf180mcu_fd_sc_mcu7t5v0__latrnq_1
*I *602:E I *D gf180mcu_fd_sc_mcu7t5v0__latrnq_1
*I *605:Z O *D gf180mcu_fd_sc_mcu7t5v0__xor2_1
*CAP
1 *601:E 0.000415094
2 *602:E 0.000124112
3 *605:Z 0.000754383
4 *165:10 0.00129359
5 *204:I *602:E 1.57245e-05
6 *204:I *165:10 0.000579615
7 *478:E *602:E 0.000113027
8 *479:I *165:10 0.00011601
9 *533:EN *601:E 2.95831e-05
10 *533:EN *602:E 3.22108e-05
11 *579:EN *602:E 0.000120806
12 *579:EN *165:10 0.00031697
13 *588:I *165:10 0.00251788
14 *26:15 *602:E 0.000174918
15 *26:15 *165:10 0.000292274
16 *43:149 *601:E 8.79612e-05
17 *43:151 *601:E 1.56424e-05
18 *43:160 *601:E 0.000215267
19 *63:20 *165:10 0.00016014
20 *77:10 *601:E 0
21 *162:12 *601:E 0
*RES
1 *605:Z *165:10 20.024 
2 *165:10 *602:E 10.456 
3 *165:10 *601:E 12.224 
*END

*D_NET *166 0.00484594
*CONN
*I *605:A2 I *D gf180mcu_fd_sc_mcu7t5v0__xor2_1
*I *591:Z O *D gf180mcu_fd_sc_mcu7t5v0__clkbuf_2
*CAP
1 *605:A2 0.000635223
2 *591:Z 0.000635223
3 *186:I *605:A2 1.40366e-05
4 *494:I *605:A2 1.37466e-05
5 *495:I *605:A2 0.000598419
6 *576:I *605:A2 0.000191002
7 *605:A1 *605:A2 0.000111066
8 *12:17 *605:A2 0.00229401
9 *63:20 *605:A2 2.7353e-05
10 *81:33 *605:A2 0
11 *89:12 *605:A2 0.000325853
*RES
1 *591:Z *605:A2 16.592 
*END

*D_NET *167 0.0140751
*CONN
*I *593:I I *D gf180mcu_fd_sc_mcu7t5v0__clkbuf_1
*I *596:I I *D gf180mcu_fd_sc_mcu7t5v0__invz_8
*I *597:I I *D gf180mcu_fd_sc_mcu7t5v0__invz_4
*I *592:Z O *D gf180mcu_fd_sc_mcu7t5v0__clkbuf_2
*CAP
1 *593:I 0.00133055
2 *596:I 0.000312254
3 *597:I 0
4 *592:Z 0.000477473
5 *167:23 0.00188742
6 *167:12 0.000722091
7 *201:I *593:I 3.42575e-05
8 *201:I *167:12 0.00144835
9 *455:EN *593:I 0.000124423
10 *455:I *593:I 0.000325477
11 *456:I *593:I 0
12 *457:EN *593:I 0.000193223
13 *459:I *593:I 0.00061761
14 *470:I *596:I 0.000125251
15 *471:EN *593:I 0.00062411
16 *471:EN *167:23 0.000116476
17 *472:EN *596:I 0.000110958
18 *474:I *593:I 0.00010492
19 *479:I *167:23 2.33885e-05
20 *514:I *167:12 0.000553482
21 *516:I *167:12 3.26036e-05
22 *581:EN *593:I 0.000197148
23 *581:EN *167:23 4.33918e-05
24 *588:I *167:23 5.93413e-05
25 *594:EN *167:12 5.1073e-06
26 *596:EN *593:I 2.81522e-06
27 *597:EN *593:I 0.0016491
28 *603:I *593:I 1.78946e-05
29 *63:10 *167:23 6.32895e-05
30 *63:20 *596:I 0.000131758
31 *77:10 *167:12 0.00143953
32 *77:10 *167:23 0.00108643
33 *81:33 *593:I 0.000199998
34 *83:8 *167:12 1.49164e-05
*RES
1 *592:Z *167:12 20.156 
2 *167:12 *597:I 4.5 
3 *167:12 *167:23 8.036 
4 *167:23 *596:I 11.6 
5 *167:23 *593:I 25.432 
*END

*D_NET *168 0.000634405
*CONN
*I *612:EN I *D gf180mcu_fd_sc_mcu7t5v0__invz_8
*I *607:ZN O *D gf180mcu_fd_sc_mcu7t5v0__nor2_2
*CAP
1 *612:EN 0.000215521
2 *607:ZN 0.000215521
3 *545:I *612:EN 0
4 *43:8 *612:EN 0.000203364
*RES
1 *607:ZN *612:EN 11.08 
*END

*D_NET *169 0.000352381
*CONN
*I *611:I I *D gf180mcu_fd_sc_mcu7t5v0__invz_2
*I *609:Z O *D gf180mcu_fd_sc_mcu7t5v0__clkbuf_1
*CAP
1 *611:I 0.000159607
2 *609:Z 0.000159607
3 *611:I *611:ZN 1.71326e-05
4 *574:I *611:I 1.60338e-05
5 *56:45 *611:I 0
*RES
1 *609:Z *611:I 10.248 
*END

*D_NET *170 0.00150243
*CONN
*I *614:I I *D gf180mcu_fd_sc_mcu7t5v0__clkinv_1
*I *611:ZN O *D gf180mcu_fd_sc_mcu7t5v0__invz_2
*I *615:Z I *D gf180mcu_fd_sc_mcu7t5v0__hold
*I *613:ZN O *D gf180mcu_fd_sc_mcu7t5v0__invz_4
*CAP
1 *614:I 0.000153579
2 *611:ZN 0.000242277
3 *615:Z 0.000321606
4 *613:ZN 0
5 *170:4 0.000410304
6 *614:I *610:I 4.21742e-05
7 *546:I *611:ZN 0
8 *546:I *614:I 0.000169099
9 *546:I *615:Z 0
10 *574:I *611:ZN 0
11 *611:I *611:ZN 1.71326e-05
12 *56:45 *611:ZN 5.45754e-05
13 *56:56 *611:ZN 2.47364e-05
14 *56:56 *615:Z 6.69436e-05
*RES
1 *613:ZN *170:4 4.5 
2 *170:4 *615:Z 5.852 
3 *170:4 *611:ZN 6.58 
4 *615:Z *614:I 10.664 
*END

*D_NET *171 0.00119633
*CONN
*I *610:I I *D gf180mcu_fd_sc_mcu7t5v0__invz_2
*I *614:ZN O *D gf180mcu_fd_sc_mcu7t5v0__clkinv_1
*CAP
1 *610:I 0.000281338
2 *614:ZN 0.000281338
3 *610:I *606:A1 0.000591484
4 *546:I *610:I 0
5 *614:I *610:I 4.21742e-05
6 *56:56 *610:I 0
*RES
1 *614:ZN *610:I 11.912 
*END

*D_NET *172 0.00112578
*CONN
*I *610:EN I *D gf180mcu_fd_sc_mcu7t5v0__invz_2
*I *607:A2 I *D gf180mcu_fd_sc_mcu7t5v0__nor2_2
*I *620:Q O *D gf180mcu_fd_sc_mcu7t5v0__latrnq_1
*CAP
1 *610:EN 3.67451e-05
2 *607:A2 0.000154458
3 *620:Q 0.000180635
4 *172:10 0.000371838
5 *438:I *607:A2 2.3245e-05
6 *438:I *610:EN 2.25463e-05
7 *545:I *607:A2 8.42801e-05
8 *545:I *610:EN 4.63426e-05
9 *546:I *172:10 0.000120236
10 *620:RN *172:10 7.75876e-05
11 *43:8 *607:A2 7.86954e-06
12 *71:8 *172:10 0
*RES
1 *620:Q *172:10 15.476 
2 *172:10 *607:A2 5.644 
3 *172:10 *610:EN 5.02 
*END

*D_NET *173 0.00265585
*CONN
*I *622:I I *D gf180mcu_fd_sc_mcu7t5v0__inv_2
*I *611:EN I *D gf180mcu_fd_sc_mcu7t5v0__invz_2
*I *621:Q O *D gf180mcu_fd_sc_mcu7t5v0__latrnq_1
*CAP
1 *622:I 0.000364397
2 *611:EN 0
3 *621:Q 0.000281699
4 *173:12 0.000646096
5 *622:I *613:EN 0.000179058
6 *173:12 *613:EN 0.000219929
7 *440:I *622:I 1.78817e-06
8 *549:I *622:I 1.36398e-06
9 *56:12 *622:I 3.22532e-06
10 *59:8 *622:I 0.000557671
11 *59:8 *173:12 0.00040062
*RES
1 *621:Q *173:12 8.244 
2 *173:12 *611:EN 4.5 
3 *173:12 *622:I 7.516 
*END

*D_NET *174 0.00294594
*CONN
*I *621:E I *D gf180mcu_fd_sc_mcu7t5v0__latrnq_1
*I *620:E I *D gf180mcu_fd_sc_mcu7t5v0__latrnq_1
*I *623:Z O *D gf180mcu_fd_sc_mcu7t5v0__xor2_1
*CAP
1 *621:E 0.000218936
2 *620:E 0.000507446
3 *623:Z 2.51407e-05
4 *174:6 0.000751523
5 *426:ZN *620:E 0.000509281
6 *427:I *620:E 0
7 *560:I *621:E 2.62725e-05
8 *572:I *621:E 3.14958e-05
9 *621:RN *620:E 0.000267969
10 *621:RN *621:E 0.000554584
11 *623:A1 *620:E 1.85523e-05
12 *623:A1 *621:E 5.77431e-06
13 *43:49 *620:E 2.89653e-05
14 *71:29 *620:E 0
*RES
1 *623:Z *174:6 4.812 
2 *174:6 *620:E 9.18 
3 *174:6 *621:E 6.788 
*END

*D_NET *175 0.000459788
*CONN
*I *606:A2 I *D gf180mcu_fd_sc_mcu7t5v0__and2_2
*I *617:Z O *D gf180mcu_fd_sc_mcu7t5v0__dlyb_1
*CAP
1 *606:A2 0.000153736
2 *617:Z 0.000153736
3 *606:A2 *610:ZN 0
4 *71:8 *606:A2 0.000152316
*RES
1 *617:Z *606:A2 19.56 
*END

*D_NET *176 0.000787556
*CONN
*I *623:A2 I *D gf180mcu_fd_sc_mcu7t5v0__xor2_1
*I *608:Z O *D gf180mcu_fd_sc_mcu7t5v0__clkbuf_2
*CAP
1 *623:A2 0.000188436
2 *608:Z 0.000188436
3 *426:I *623:A2 4.67771e-06
4 *547:EN *623:A2 0.000173346
5 *554:I *623:A2 5.63044e-06
6 *572:I *623:A2 0.00019482
7 *71:29 *623:A2 3.22108e-05
*RES
1 *608:Z *623:A2 10.768 
*END

*D_NET *177 0.00279496
*CONN
*I *612:ZN O *D gf180mcu_fd_sc_mcu7t5v0__invz_8
*I *616:Z I *D gf180mcu_fd_sc_mcu7t5v0__hold
*I *606:A1 I *D gf180mcu_fd_sc_mcu7t5v0__and2_2
*I *610:ZN O *D gf180mcu_fd_sc_mcu7t5v0__invz_2
*I *618:ZN O *D gf180mcu_fd_sc_mcu7t5v0__invz_1
*CAP
1 *612:ZN 0.000171305
2 *616:Z 4.32002e-05
3 *606:A1 0.00017508
4 *610:ZN 0.000145056
5 *618:ZN 0
6 *177:10 0.000418095
7 *177:6 0.000240046
8 *177:4 0.000270191
9 *506:Z *612:ZN 0.000271894
10 *506:Z *177:6 7.95519e-06
11 *546:I *606:A1 3.75723e-05
12 *546:I *610:ZN 7.45865e-05
13 *546:I *616:Z 9.48851e-05
14 *546:I *177:6 9.49602e-05
15 *546:I *177:10 8.99624e-05
16 *606:A2 *610:ZN 0
17 *610:I *606:A1 0.000591484
18 *618:EN *612:ZN 3.75723e-05
19 *618:EN *177:6 1.19584e-05
20 *56:56 *606:A1 0
21 *56:56 *610:ZN 1.91527e-05
*RES
1 *618:ZN *177:4 4.5 
2 *177:4 *177:6 0.936 
3 *177:6 *177:10 5.436 
4 *177:10 *610:ZN 10.248 
5 *177:10 *606:A1 11.392 
6 *177:6 *616:Z 5.228 
7 *177:4 *612:ZN 6.58 
*END

*D_NET *178 0.00158031
*CONN
*I *613:EN I *D gf180mcu_fd_sc_mcu7t5v0__invz_4
*I *622:ZN O *D gf180mcu_fd_sc_mcu7t5v0__inv_2
*CAP
1 *613:EN 0.00059066
2 *622:ZN 0.00059066
3 *437:I *613:EN 0
4 *441:I *613:EN 0
5 *547:EN *613:EN 0
6 *622:I *613:EN 0.000179058
7 *173:12 *613:EN 0.000219929
*RES
1 *622:ZN *613:EN 13.264 
*END

*D_NET *179 0.000396896
*CONN
*I *618:I I *D gf180mcu_fd_sc_mcu7t5v0__invz_1
*I *619:Z O *D gf180mcu_fd_sc_mcu7t5v0__tieh
*CAP
1 *618:I 0.000189172
2 *619:Z 0.000189172
3 *206:I *618:I 0
4 *506:Z *618:I 1.85523e-05
*RES
1 *619:Z *618:I 10.456 
*END
